time,active_time,area_h,evaluations,iterations,nodes,step_size,von_mises
0,0,1248.2142502093,0,0,0,0,0
3.90625,1681.96181402,1248.0817499552,1808,44,160801,3.90625,31.899676509028
7.8125,1919.662034422,1248.0816819958,1901,39,160801,3.90625,31.747627858062
11.71875,2163.185747158,1248.0826111796,1993,38,160801,3.90625,31.905393615779
15.625,2399.890417844,1248.084195709,2088,41,160801,3.90625,32.190291961184
19.53125,2651.169615657,1248.0864694486,2185,43,160801,3.90625,32.58661112301
23.4375,2921.81347493,1248.0895640431,2285,46,160801,3.90625,33.107066445811
27.34375,3183.514604267,1248.0936988996,2384,45,160801,3.90625,33.776019290442
31.25,3454.084442555,1248.0991853016,2487,49,160801,3.90625,34.625140130665
33.203125,3864.494547616,1248.1024619945,2620,27,160801,1.953125,35.113789354166
35.15625,4080.107534696,1248.1062150276,2702,28,160801,1.953125,35.658267112943
37.109375,4300.147116122,1248.1105114946,2786,30,160801,1.953125,36.263217614817
39.0625,4517.956028413,1248.1154278491,2871,31,160801,1.953125,36.933382436252
41.015625,4768.46622366,1248.121050761,2957,32,160801,1.953125,37.673704663185
42.96875,5008.638397801,1248.1274780883,3044,33,160801,1.953125,38.489179921628
44.921875,5303.282630068,1248.1348199916,3133,35,160801,1.953125,39.384949165211
46.875,5619.714808893,1248.1431999852,3224,37,160801,1.953125,40.366167120683
48.828125,5927.156721439,1248.1527559397,3316,38,160801,1.953125,41.438076778187
50.78125,6187.440939325,1248.1636410296,3410,40,160801,1.953125,42.605906846692
52.734375,6510.38281935,1248.1760241689,3505,41,160801,1.953125,43.874800749349
52.734375,6456.165526516,1248.1760241689,95,41,160801,1.953125,43.874800749346
54.6875,6734.310916183,1248.1900906974,192,43,160801,1.953125,45.249834940356
56.640625,7033.721762884,1248.2060421357,290,44,160801,1.953125,46.735975186592
58.59375,7303.563754307,1248.2240952924,389,45,160801,1.953125,48.338144713753
60.546875,7584.45480563,1248.2444808639,492,49,160801,1.953125,50.061274652521
62.5,7893.514765497,1248.2674402928,596,50,160801,1.953125,51.910142454275
63.4765625,8306.764335714,1248.2798093785,740,38,160801,0.9765625,52.86941390003
65.4296875,8445.864505791,1248.307075541,792,50,160801,1.953125,54.914451912276
66.40625,8833.263877064,1248.3217145297,937,39,160801,0.9765625,55.972800603318
67.3828125,9071.200957743,1248.3371629306,1030,39,160801,0.9765625,57.064844173418
68.359375,9320.390622325,1248.3534487618,1124,40,160801,0.9765625,58.191045069469
69.3359375,9576.623151314,1248.3705985407,1218,40,160801,0.9765625,59.351845941211
70.3125,9820.281269302,1248.3886367994,1312,40,160801,0.9765625,60.547669003708
71.2890625,10139.004584344,1248.4075855615,1407,41,160801,0.9765625,61.778913473182
72.265625,10459.783088876,1248.4274637471,1502,41,160801,0.9765625,63.045953883546
73.2421875,10699.633113238,1248.4482865109,1597,41,160801,0.9765625,64.349137839932
74.21875,10979.731877332,1248.4700644935,1693,42,160801,0.9765625,65.688788583503
75.1953125,11290.471054675,1248.4928029698,1789,42,160801,0.9765625,67.065193113637
76.171875,11615.800650088,1248.5165009409,96,42,160801,0.9765625,68.478588916839
77.1484375,11863.73308946,1248.5411501242,193,43,160801,0.9765625,69.929177027852
79.1015625,12001.669923174,1248.5936793761,245,50,160801,1.953125,72.986373607083
81.0546875,12247.912894181,1248.649677083,348,49,160801,1.953125,76.198061868469
82.03125,12591.844495754,1248.6786443854,498,44,160801,0.9765625,77.838326520289
83.0078125,12835.333866348,1248.7082809545,596,44,160801,0.9765625,79.516042469992
83.984375,13076.541577477,1248.7384887727,694,44,160801,0.9765625,81.231063733548
84.9609375,13291.269258141,1248.7691501089,792,44,160801,0.9765625,82.98318622325
85.9375,13511.839439325,1248.8001253617,891,45,160801,0.9765625,84.772142173925
86.9140625,13768.061807718,1248.8312507803,990,45,160801,0.9765625,86.597594322731
87.890625,14007.700500398,1248.862336158,1089,45,160801,0.9765625,88.459135677183
88.8671875,14250.688212128,1248.8931622248,1188,45,160801,0.9765625,90.356288213244
89.84375,14498.300654963,1248.9234780239,1287,45,160801,0.9765625,92.288506797064
90.8203125,14735.046937276,1248.9529981041,1385,44,160801,0.9765625,94.255173628758
91.796875,14940.676529497,1248.9813996179,1482,43,160801,0.9765625,96.255591427364
92.7734375,15176.241061552,1249.0083192927,1578,42,160801,0.9765625,98.288973894496
93.75,15401.885817176,1249.0333503081,1674,42,160801,0.9765625,100.3544507386
94.7265625,15628.806939244,1249.0560390627,1769,41,160801,0.9765625,102.45107360109
95.703125,15863.668490843,1249.0758818859,1864,41,160801,0.9765625,104.57781504184
96.6796875,16066.515455115,1249.0923216789,1960,42,160801,0.9765625,106.73357032096
97.65625,16268.529870342,1249.104744503,2055,41,160801,0.9765625,108.91715583209
98.6328125,16472.706689226,1249.1124762091,2151,42,160801,0.9765625,111.12730855919
99.609375,16679.398581056,1249.1147789977,2247,42,160801,0.9765625,113.36269037368
100.5859375,16882.141162938,1249.1108481012,2343,42,160801,0.9765625,115.62188190897
101.5625,17086.369400971,1249.0998085343,2439,42,160801,0.9765625,117.90338369751
102.5390625,17289.147364626,1249.0807119105,2535,42,160801,0.9765625,120.20562314921
103.515625,17495.949895964,1249.0525335438,2632,43,160801,0.9765625,122.52695910174
104.4921875,17701.028466162,1249.0141696647,2729,43,160801,0.9765625,124.86568343342
105.46875,17907.225405354,1248.9644349989,2826,43,160801,0.9765625,127.22002418866
106.4453125,18112.453756242,1248.9020606767,2923,43,160801,0.9765625,129.58815095022
107.421875,18318.764777418,1248.825692569,3020,43,160801,0.9765625,131.96818008567
108.3984375,18523.782400624,1248.7338901559,3117,43,160801,0.9765625,134.35818091429
109.375,18730.011122418,1248.6251259984,3214,43,160801,0.9765625,136.75618152025
110.3515625,18932.770885648,1248.4977858921,3310,42,160801,0.9765625,139.16017530934
111.328125,19136.798893522,1248.350169865,3406,42,160801,0.9765625,141.56812479076
112.3046875,19339.607379326,1248.180494083,3502,42,160801,0.9765625,143.97797078915
113.28125,19543.759609349,1247.986893813,3598,42,160801,0.9765625,146.38763530776
114.2578125,19746.631119079,1247.7674275653,3694,42,160801,0.9765625,148.79502586038
115.234375,19952.961516803,1247.5200824845,3791,43,160801,0.9765625,151.19805002768
116.2109375,20160.16080934,1247.2427812519,3889,44,160801,0.9765625,153.59461987267
117.1875,20368.498583182,1246.9333904163,3987,44,160801,0.9765625,155.98265614154
119.140625,20479.377266553,1246.1763872676,4039,50,160801,1.953125,160.7849285209
121.09375,20696.344134691,1245.2586969115,4141,48,160801,1.953125,165.52550804769
123.046875,20909.882493018,1244.1618202635,4242,47,160801,1.953125,170.18822519077
125,21122.550958247,1242.8680448455,4342,46,160801,1.953125,174.75765178825
126.953125,21331.900650437,1241.36121479,4441,45,160801,1.953125,179.2193196089
128.90625,21546.7890838,1239.6275924565,4542,47,160801,1.953125,183.55987789866
130.859375,21762.664103462,1237.6567777587,4644,48,160801,1.953125,187.76722851442
132.8125,21972.236787432,1235.4426279546,4742,44,160801,1.953125,191.83059553098
134.765625,22187.182790444,1232.9841028192,4845,49,160801,1.953125,195.74057952384
136.71875,22398.979717513,1230.285950551,4946,47,160801,1.953125,199.48918673671
138.671875,22609.374768889,1227.359142612,5044,44,160801,1.953125,203.06987646709
140.625,22819.035089661,1224.2209734907,5144,46,160801,1.953125,206.47756994863
142.578125,23029.620845793,1220.894763126,5245,47,160801,1.953125,209.70861114791
144.53125,23239.272552197,1217.4091420967,5345,46,160801,1.953125,212.76077272834
146.484375,23447.755913212,1213.7969611054,5445,46,160801,1.953125,215.63328469957
148.4375,23661.639635475,1210.0939315786,5547,48,160801,1.953125,218.32680829805
150.390625,23872.216555047,1206.337152554,5648,47,160801,1.953125,220.84343862
152.34375,24084.016361093,1202.5636858252,5749,47,160801,1.953125,223.18664307476
154.296875,24294.602016237,1198.8093023706,5850,47,160801,1.953125,225.36109084276
155.2734375,24584.34947672,1196.9676894226,5989,33,160801,0.9765625,226.38715642305
157.2265625,24684.99107939,1193.3027238364,6037,46,160801,1.953125,228.32026698808
158.203125,24959.687918426,1191.5178439562,6169,26,160801,0.9765625,229.23100721059
159.1796875,25125.384846197,1189.7583694601,6249,26,160801,0.9765625,230.10525781838
161.1328125,25233.70100246,1186.3120029948,6300,49,160801,1.953125,231.74003353167
163.0859375,25439.946460362,1183.0065548412,6399,45,160801,1.953125,233.23652398307
165.0390625,25641.009137004,1179.8556707342,6495,42,160801,1.953125,234.60334762823
166.9921875,25845.051912208,1176.868524698,6593,44,160801,1.953125,235.84883456501
168.9453125,26043.962531614,1174.0492713603,6688,41,160801,1.953125,236.98112076751
170.8984375,26233.177989767,1171.397366766,6779,37,160801,1.953125,238.00833688305
172.8515625,26419.336481595,1168.9082789144,6868,35,160801,1.953125,238.93867083124
174.8046875,26597.943907107,1166.5744144527,6954,32,160801,1.953125,239.77987809128
176.7578125,26785.626195521,1164.3861311832,7043,35,160801,1.953125,240.53932428818
178.7109375,26970.706393557,1162.3327144037,7132,35,160801,1.953125,241.22371025973
180.6640625,27159.116734404,1160.4032100899,7222,36,160801,1.953125,241.8395553463
182.6171875,27348.260168409,1158.5870369608,7313,37,160801,1.953125,242.39335880372
184.5703125,27538.584938416,1156.8743557152,7404,37,160801,1.953125,242.8911038749
186.5234375,27725.691164282,1155.2562433492,7494,36,160801,1.953125,243.33853332341
188.4765625,27911.845757822,1153.72477488,7583,35,160801,1.953125,243.74098465101
190.4296875,28098.961696427,1152.273110842,7673,36,160801,1.953125,244.10364467631
192.3828125,28285.894401994,1150.8956135335,7762,35,160801,1.953125,244.43171962489
196.2890625,28393.0070891,1148.3399653396,7813,49,160801,3.90625,244.97851236949
198.2421875,28695.391522305,1147.1581269241,7958,39,160801,1.953125,245.22964298751
202.1484375,28804.598893094,1144.9791251058,8010,50,160801,3.90625,245.65732923333
203.125,29193.744201899,1144.4689714369,8197,29,160801,0.9765625,245.76194071952
204.1015625,29357.447007727,1143.9734644886,8276,25,160801,0.9765625,245.86247250779
205.078125,29537.372526921,1143.4919909295,8362,32,160801,0.9765625,245.95914692793
207.03125,29644.392334607,1142.5690765712,8412,48,160801,1.953125,246.137870042
208.0078125,29926.889890193,1142.1248540172,8547,29,160801,0.9765625,246.22482728654
209.9609375,30027.565424418,1141.2714656505,8595,46,160801,1.953125,246.38676403878
211.9140625,30239.322530989,1140.4594101898,8696,47,160801,1.953125,246.53979207076
213.8671875,30447.687713323,1139.686799811,8796,46,160801,1.953125,246.68481760269
215.8203125,30659.437026094,1138.9531166934,8897,47,160801,1.953125,246.82315762954
217.7734375,30867.931081392,1138.2588373408,8997,46,160801,1.953125,246.95634090382
219.7265625,31081.18289657,1137.6046521227,9098,47,160801,1.953125,247.08609976683
221.6796875,31289.567944831,1136.990585931,9198,46,160801,1.953125,247.21352879343
223.6328125,31495.105682787,1136.4154453765,9296,44,160801,1.953125,247.33891381313
225.5859375,31701.459526091,1135.8768380202,9394,44,160801,1.953125,247.46238987256
226.5625,32031.738262858,1135.6199037059,9550,50,160801,0.9765625,247.5244552112
227.5390625,32251.617250533,1135.3713056775,9654,50,160801,0.9765625,247.58606727353
228.02734375,32534.5936728,1135.2498493776,9788,28,160801,0.48828125,247.61700761195
228.515625,32713.267335594,1135.1303759862,9873,31,160801,0.48828125,247.64782085071
229.00390625,32899.54579023,1135.0128302421,9961,34,160801,0.48828125,247.67846996104
229.4921875,33080.299302713,1134.8971628127,10047,32,160801,0.48828125,247.70893259018
230.46875,33181.33854599,1134.6714588219,10094,45,160801,0.9765625,247.76880843932
230.95703125,33471.515683682,1134.561105386,10232,32,160801,0.48828125,247.79871114671
231.4453125,33653.559626196,1134.4525226136,10318,32,160801,0.48828125,247.8284090708
231.93359375,33834.522780324,1134.3456934663,10404,32,160801,0.48828125,247.85790432879
232.91015625,33944.155499399,1134.1373774796,10455,49,160801,0.9765625,247.91589510292
233.88671875,34159.645516165,1133.9358571256,10557,48,160801,0.9765625,247.97324112798
234.86328125,34369.980273666,1133.7412718854,10656,45,160801,0.9765625,248.0299365065
235.3515625,34662.259201015,1133.646551918,10795,33,160801,0.48828125,248.05825213791
236.328125,34774.098726191,1133.4628172492,10847,50,160801,0.9765625,248.11401509441
236.81640625,35061.933659771,1133.3736317294,10984,31,160801,0.48828125,248.14190289193
237.79296875,35161.63299685,1133.2011931005,11030,44,160801,0.9765625,248.19686652795
238.28125,35451.847392688,1133.1177628071,11168,32,160801,0.48828125,248.22435078187
238.76953125,35633.959477878,1133.0363313148,11254,32,160801,0.48828125,248.25170691667
239.74609375,35742.449525161,1132.8796191535,11305,49,160801,0.9765625,248.30573074635
241.69921875,35852.138680933,1132.5900014815,11356,49,160801,1.953125,248.41125349605
242.67578125,36179.790814759,1132.4565479746,11511,49,160801,0.9765625,248.46412386752
243.1640625,36471.037698083,1132.3926724329,11649,32,160801,0.48828125,248.49057489901
244.140625,36581.662784948,1132.2710209479,11701,50,160801,0.9765625,248.54280401428
244.62890625,36868.696685016,1132.2128805941,11837,30,160801,0.48828125,248.56892862713
245.1171875,37047.537300321,1132.1566101114,11922,31,160801,0.48828125,248.59494144703
246.09375,37157.202868915,1132.0496078379,11973,49,160801,0.9765625,248.64633103899
247.0703125,37374.979458944,1131.9492636216,12076,49,160801,0.9765625,248.69736931572
247.55859375,37664.184273259,1131.9013798162,12213,31,160801,0.48828125,248.72292239776
248.046875,37845.172275836,1131.8550816226,12299,32,160801,0.48828125,248.74837702474
248.53515625,38027.245238332,1131.8103076462,12385,32,160801,0.48828125,248.77373594829
249.51171875,38135.691357667,1131.725191603,12436,49,160801,0.9765625,248.82386680555
250.48828125,38378.15467722,1131.6452927491,12540,50,160801,0.9765625,248.8735964732
251.46484375,38593.143855767,1131.5702337716,12643,49,160801,0.9765625,248.92293040693
252.44140625,38811.445379305,1131.4996279638,12747,50,160801,0.9765625,248.97187583029
253.41796875,39026.516199838,1131.4330884806,12850,49,160801,0.9765625,249.02043005427
254.39453125,39245.759072328,1131.3702345178,12954,50,160801,0.9765625,249.06856577397
255.37109375,39458.730504755,1131.3106953433,13056,48,160801,0.9765625,249.11624182796
256.34765625,39676.441673335,1131.2541134274,13158,48,160801,0.9765625,249.16343346917
257.32421875,39886.671142594,1131.2001470781,13259,47,160801,0.9765625,249.21015183505
258.30078125,40100.284887027,1131.1484727755,13361,48,160801,0.9765625,249.25639039501
259.27734375,40308.291814519,1131.0987872113,13461,46,160801,0.9765625,249.3021154906
260.25390625,40517.610923718,1131.0508089909,13561,46,160801,0.9765625,249.34731434654
261.23046875,40725.664095145,1131.0042799737,13661,46,160801,0.9765625,249.39196638632
262.20703125,40935.17345227,1130.9589661885,13761,46,160801,0.9765625,249.43606290691
263.18359375,41145.1465892,1130.9146583427,13860,45,160801,0.9765625,249.47959599889
264.16015625,41361.794158071,1130.8711719193,13959,45,160801,0.9765625,249.52256090712
265.13671875,41565.968720034,1130.828346898,14057,44,160801,0.9765625,249.56498498515
266.11328125,41773.363593556,1130.7860471648,14156,45,160801,0.9765625,249.60693910399
267.08984375,41979.497388434,1130.7441596609,14255,45,160801,0.9765625,249.64848558488
268.06640625,42184.737988996,1130.7025933389,14353,44,160801,0.9765625,249.68967344954
269.04296875,42386.591782979,1130.6612779094,14450,43,160801,0.9765625,249.73052549003
270.01953125,42587.618045385,1130.6201624976,14546,42,160801,0.9765625,249.77105943688
270.99609375,42791.583343745,1130.5792142123,14644,44,160801,0.9765625,249.81133690383
271.97265625,42990.352299971,1130.5384166444,14739,41,160801,0.9765625,249.85141644259
272.94921875,43190.17110555,1130.4977683728,14835,42,160801,0.9765625,249.89132721539
273.92578125,43392.61846734,1130.4572814186,14930,41,160801,0.9765625,249.93111855255
274.90234375,43593.042171543,1130.4169797484,15025,41,160801,0.9765625,249.97080203182
275.87890625,43795.135871114,1130.3768977717,15121,42,160801,0.9765625,250.01036889603
276.85546875,43997.254266161,1130.3370788675,15218,43,160801,0.9765625,250.04979568333
277.83203125,44195.469505242,1130.2975739485,15312,40,160801,0.9765625,250.08907093294
278.80859375,44393.647282433,1130.2584400749,15407,41,160801,0.9765625,250.12816373106
279.78515625,44590.811191767,1130.2197391143,15501,40,160801,0.9765625,250.16703665473
280.76171875,44791.087266173,1130.1815364136,15597,42,160801,0.9765625,250.2057006974
281.73828125,44996.842325337,1130.1438995605,15695,44,160801,0.9765625,250.24415926157
282.71484375,45211.000445491,1130.1068971779,15790,41,160801,0.9765625,250.28244596103
283.69140625,45410.855064636,1130.070597806,15885,41,160801,0.9765625,250.32057283012
284.66796875,45608.848150257,1130.0350688125,15980,41,160801,0.9765625,250.35855940788
285.64453125,45808.093022103,1130.0003754072,16075,41,160801,0.9765625,250.39640027102
286.62109375,46006.100378769,1129.9665796953,16170,41,160801,0.9765625,250.43411981618
287.59765625,46207.435416963,1129.9337397711,16266,42,160801,0.9765625,250.47169476625
288.57421875,46405.517377964,1129.9019088603,16361,41,160801,0.9765625,250.50910994045
289.55078125,46609.049190501,1129.8711344815,16458,43,160801,0.9765625,250.54641829165
290.52734375,46810.813443018,1129.841457656,16554,42,160801,0.9765625,250.58364552773
291.50390625,47015.513208208,1129.8129121647,16650,42,160801,0.9765625,250.62083478533
292.48046875,47215.576237523,1129.7855238615,16746,42,160801,0.9765625,250.65805666527
293.45703125,47417.088464069,1129.7593101147,16842,42,160801,0.9765625,250.69533755356
294.43359375,47617.205555784,1129.7342792895,16938,42,160801,0.9765625,250.73271418083
295.41015625,47818.802169514,1129.7104303869,17034,42,160801,0.9765625,250.77021566824
296.38671875,48018.979186372,1129.6877527358,17130,42,160801,0.9765625,250.80787768939
297.36328125,48222.529393179,1129.6662258081,17227,43,160801,0.9765625,250.84572828129
298.33984375,48422.533539519,1129.6458191212,17323,42,160801,0.9765625,250.88378444497
299.31640625,48627.046863978,1129.6264922619,17420,43,160801,0.9765625,250.92205198613
300.29296875,48829.194710348,1129.608195007,17517,43,160801,0.9765625,250.96052161446
301.26953125,49030.73268369,1129.5908676187,17613,42,160801,0.9765625,250.99915243564
303.22265625,49116.633358877,1129.5604840644,17654,39,160801,1.953125,251.07632786975
305.17578125,49329.136764912,1129.5324627514,17755,47,160801,1.953125,251.15341231355
306.15234375,49634.718830901,1129.518190745,17902,41,160801,0.9765625,251.19193728159
307.12890625,49838.112522853,1129.5045717841,17997,41,160801,0.9765625,251.23023406242
308.10546875,50040.16786629,1129.4914159021,18093,42,160801,0.9765625,251.26830602331
309.08203125,50239.458245757,1129.4785699253,18188,41,160801,0.9765625,251.30612188884
310.05859375,50436.915420582,1129.465898413,18283,41,160801,0.9765625,251.34362071496
311.03515625,50637.139902372,1129.4532756307,18378,41,160801,0.9765625,251.38078126161
312.01171875,50832.723539955,1129.4405824372,18472,40,160801,0.9765625,251.41763206506
312.98828125,51029.398049398,1129.4277051969,18566,40,160801,0.9765625,251.45417589916
313.96484375,51224.796568592,1129.4145355492,18660,40,160801,0.9765625,251.49040195624
314.94140625,51421.423988651,1129.4009705278,18754,40,160801,0.9765625,251.52629664227
315.91796875,51616.777965293,1129.3869128309,18848,40,160801,0.9765625,251.56186864282
316.89453125,51811.239706367,1129.3722711323,18941,39,160801,0.9765625,251.59713126282
317.87109375,52006.635292826,1129.3569603816,19035,40,160801,0.9765625,251.63209261282
319.82421875,52110.521817337,1129.3256045716,19084,47,160801,1.953125,251.70090466527
323.73046875,52189.706115543,1129.2547249984,19122,36,160801,3.90625,251.83421963187
327.63671875,52387.173518336,1129.163305239,19212,36,160801,3.90625,251.96172154806
331.54296875,52585.157332171,1129.0518144297,19306,40,160801,3.90625,252.0826923534
335.44921875,52776.04957163,1128.921157587,19396,36,160801,3.90625,252.19754645466
339.35546875,52963.437120978,1128.7729846122,19485,35,160801,3.90625,252.30700782577
343.26171875,53167.255415389,1128.6094603988,19581,42,160801,3.90625,252.41131750465
343.26171875,53109.723629295,1128.6094603728,96,42,160801,3.90625,252.41131750745
351.07421875,53175.688107047,1128.2541515523,142,44,160801,7.8125,252.60538789409
354.98046875,53377.617647056,1128.0516426914,285,36,160801,3.90625,252.69783041019
358.88671875,53499.759872188,1127.8437217733,373,34,160801,3.90625,252.78539273914
362.79296875,53624.108912531,1127.628688645,461,34,160801,3.90625,252.8686582687
366.69921875,53746.131244032,1127.4058067621,550,35,160801,3.90625,252.94830240982
370.60546875,53863.94775144,1127.1746566625,636,32,160801,3.90625,253.02384108988
374.51171875,53981.06948477,1126.9351110465,724,34,160801,3.90625,253.09471332726
378.41796875,54095.205294481,1126.6873456799,810,32,160801,3.90625,253.1610739005
382.32421875,54209.975261295,1126.431788919,898,34,160801,3.90625,253.222705653
390.13671875,54276.881266691,1125.9061519513,948,48,160801,7.8125,253.32888768525
397.94921875,54407.995721179,1125.3494147251,1049,46,160801,7.8125,253.42277273025
405.76171875,54541.302960444,1124.773334809,1151,47,160801,7.8125,253.5088807397
413.57421875,54672.754906275,1124.1852733441,1252,46,160801,7.8125,253.58443174485
421.38671875,54806.068110231,1123.5876506201,1354,47,160801,7.8125,253.65174122063
429.19921875,54936.86701072,1122.9730882672,1455,46,160801,7.8125,253.71430055163
433.10546875,55138.810160779,1122.6519220017,1610,48,160801,3.90625,253.74499508943
437.01171875,55262.627082184,1122.3199619347,1705,41,160801,3.90625,253.77373424711
440.91796875,55393.040590415,1121.9678955357,1804,45,160801,3.90625,253.79972023754
444.82421875,55518.397478744,1121.5859494337,1900,42,160801,3.90625,253.82160145958
448.73046875,55648.283349786,1121.1641605215,1998,44,160801,3.90625,253.83874850864
452.63671875,55779.436621559,1120.698305961,2098,46,160801,3.90625,253.85247903851
456.54296875,55905.15620526,1120.2116967345,2193,41,160801,3.90625,253.87123914209
460.44921875,56028.295923142,1119.7959941488,2287,40,160801,3.90625,253.92240214592
468.26171875,56089.723757622,1119.5283972254,2333,44,160801,7.8125,254.08084844864
476.07421875,56210.796128889,1119.5992408379,2426,38,160801,7.8125,254.17498209727
483.88671875,56328.148293659,1119.6203978821,2516,35,160801,7.8125,254.25127870076
491.69921875,56445.691241543,1119.5264020844,2607,36,160801,7.8125,254.31752712576
499.51171875,56565.697760278,1119.3360722502,2699,37,160801,7.8125,254.37608706043
507.32421875,56689.030795608,1119.0843507082,2794,40,160801,7.8125,254.42863834899
515.13671875,56814.634371227,1118.80101434,2890,41,160801,7.8125,254.47674930422
522.94921875,56944.49869422,1118.5071173579,2990,45,160801,7.8125,254.52202070915
530.76171875,57074.22001666,1118.2170436956,3089,44,160801,7.8125,254.56575841349
538.57421875,57205.246271124,1117.941076829,3190,46,160801,7.8125,254.60849567082
546.38671875,57333.343090643,1117.6871047906,3288,43,160801,7.8125,254.65161178808
554.19921875,57460.448483085,1117.4612084175,3386,43,160801,7.8125,254.69649256982
562.01171875,57584.701789637,1117.2665963643,3481,40,160801,7.8125,254.74409562416
569.82421875,57702.145981184,1117.1005122552,3572,36,160801,7.8125,254.79500064926
577.63671875,57823.598708831,1116.9507484482,3665,38,160801,7.8125,254.84689443049
585.44921875,57941.515639901,1116.7970822352,3756,36,160801,7.8125,254.89715345678
593.26171875,58068.123006358,1116.6199942252,3853,42,160801,7.8125,254.94335418985
601.07421875,58194.140854442,1116.4087412543,3950,42,160801,7.8125,254.98219074086
608.88671875,58322.458215446,1116.1618362264,4048,43,160801,7.8125,255.01262002006
616.69921875,58458.008094445,1115.8834638735,4152,49,160801,7.8125,255.03635491907
620.60546875,58649.727028093,1115.7337627709,4299,40,160801,3.90625,255.04670166944
624.51171875,58773.967423441,1115.5805591101,4394,41,160801,3.90625,255.05581860193
632.32421875,58843.493801379,1115.2643924598,4446,50,160801,7.8125,255.07077005053
640.13671875,58977.010870099,1114.9388658154,4549,48,160801,7.8125,255.08302395504
647.94921875,59105.329016601,1114.6125058659,4647,43,160801,7.8125,255.0945588533
655.76171875,59236.538131568,1114.2899328611,4748,46,160801,7.8125,255.10845277974
663.57421875,59363.873277808,1113.9734095201,4845,42,160801,7.8125,255.12042321649
671.38671875,59492.173179466,1113.6638662026,4943,43,160801,7.8125,255.13000588207
679.19921875,59618.836811341,1113.3615584766,5040,42,160801,7.8125,255.13510726648
687.01171875,59750.458566718,1113.0664583777,5141,46,160801,7.8125,255.13595755787
694.82421875,59875.837567278,1112.7783295359,5237,41,160801,7.8125,255.13562100114
698.73046875,60068.442247571,1112.6361609197,5376,32,160801,3.90625,255.13609779332
706.54296875,60137.389594317,1112.3591583294,5423,45,160801,7.8125,255.13443395319
714.35546875,60278.787328039,1112.0863661421,5526,48,160801,7.8125,255.13187007293
722.16796875,60420.704572832,1111.8176072495,5628,47,160801,7.8125,255.12998038353
729.98046875,60563.050554187,1111.5510335042,5731,48,160801,7.8125,255.12944707651
733.88671875,60777.290467724,1111.4176573501,5886,48,160801,3.90625,255.12999470927
737.79296875,60912.081785169,1111.2847385097,5983,43,160801,3.90625,255.13030359859
741.69921875,61049.007072976,1111.1507385823,6082,45,160801,3.90625,255.1303112096
743.65234375,61229.560935378,1111.0829233815,6220,32,160801,1.953125,255.13028520132
747.55859375,61290.008236683,1110.9454353888,6265,43,160801,3.90625,255.12920909406
751.46484375,61425.377320007,1110.8032440676,6368,49,160801,3.90625,255.12730770319
755.37109375,61547.549091646,1110.6546874318,6461,39,160801,3.90625,255.1243440881
759.27734375,61671.275044969,1110.4974432717,6555,40,160801,3.90625,255.12024443249
761.23046875,61870.130687535,1110.4151486055,6697,36,160801,1.953125,255.11803824034
763.18359375,61987.168629155,1110.3299115002,6783,32,160801,1.953125,255.11557457476
767.08984375,62049.348800859,1110.1465171409,6826,41,160801,3.90625,255.1093313649
770.99609375,62193.095784963,1109.9436422206,6929,49,160801,3.90625,255.10168243426
774.90234375,62330.975301005,1109.7178166588,7027,44,160801,3.90625,255.09202652741
778.80859375,62473.934231865,1109.4674583543,7130,49,160801,3.90625,255.08002332145
782.71484375,62613.653335259,1109.197922114,7231,47,160801,3.90625,255.06746196775
784.66796875,62805.923200252,1109.062880985,7378,41,160801,1.953125,255.06290808876
786.62109375,62923.302476872,1108.933581466,7467,35,160801,1.953125,255.06126850689
788.57421875,63037.989777863,1108.8171350758,7555,34,160801,1.953125,255.06487149342
790.52734375,63153.816448625,1108.7218512922,7643,34,160801,1.953125,255.07699011161
794.43359375,63222.384746687,1108.6240447388,7695,50,160801,3.90625,255.13162810068
798.33984375,63347.733763312,1108.660586228,7790,41,160801,3.90625,255.18963036503
806.15234375,63401.85597457,1109.0189079991,7831,39,160801,7.8125,255.28471969048
810.05859375,63583.939802438,1109.2666709802,7971,33,160801,3.90625,255.33028671652
817.87109375,63646.725920498,1109.8296048662,8019,46,160801,7.8125,255.43034845764
821.77734375,63825.774080228,1110.1126016905,8157,31,160801,3.90625,255.48338497596
825.68359375,63940.942722165,1110.3794187756,8246,35,160801,3.90625,255.53623135482
829.58984375,64063.963730516,1110.6174123378,8340,40,160801,3.90625,255.58708703663
837.40234375,64125.231180395,1110.9766033412,8387,45,160801,7.8125,255.67819760945
845.21484375,64257.860971676,1111.197888824,8489,47,160801,7.8125,255.75481193001
849.12109375,64459.218043821,1111.2698748466,8645,49,160801,3.90625,255.78905307357
853.02734375,64593.289314263,1111.3204093742,8747,48,160801,3.90625,255.82093451442
860.83984375,64658.489308143,1111.3710836836,8797,48,160801,7.8125,255.87862874164
864.74609375,64851.726010881,1111.3763778166,8945,41,160801,3.90625,255.90489881552
868.65234375,64978.025911027,1111.3727661503,9042,43,160801,3.90625,255.92944740185
876.46484375,65042.014171348,1111.3472489784,9090,46,160801,7.8125,255.9741654649
884.27734375,65174.010636308,1111.2953998478,9192,47,160801,7.8125,256.01439858049
892.08984375,65308.365243565,1111.225074957,9295,48,160801,7.8125,256.05230679394
899.90234375,65441.984249061,1111.1445479613,9398,48,160801,7.8125,256.08939887717
903.80859375,65636.705205772,1111.1004965282,9548,43,160801,3.90625,256.10783998378
911.62109375,65703.974561784,1111.0239400782,9599,49,160801,7.8125,256.14525933814
915.52734375,65897.08544327,1110.9867488152,9747,41,160801,3.90625,256.16521372921
919.43359375,66017.548377116,1110.9546787973,9840,39,160801,3.90625,256.18644363717
923.33984375,66132.666882264,1110.927762832,9928,34,160801,3.90625,256.20916724335
927.24609375,66244.2039948,1110.905856714,10014,32,160801,3.90625,256.2331691807
931.15234375,66356.604468764,1110.8883044068,10100,32,160801,3.90625,256.25798626882
938.96484375,66424.841390236,1110.866239287,10152,50,160801,7.8125,256.30823704983
942.87109375,66607.336898118,1110.8506525026,10293,34,160801,3.90625,256.33237880552
950.68359375,66674.084969582,1110.8148590715,10344,49,160801,7.8125,256.37679317328
958.49609375,66808.469043843,1110.7514724,10447,48,160801,7.8125,256.41435642284
966.30859375,66941.735958959,1110.6564598238,10550,48,160801,7.8125,256.44458396638
970.21484375,67134.730078061,1110.5958977469,10698,41,160801,3.90625,256.45731834504
974.12109375,67267.006796547,1110.529718811,10799,47,160801,3.90625,256.46837575674
978.02734375,67392.08625528,1110.4581164277,10894,41,160801,3.90625,256.47799591473
981.93359375,67521.464383137,1110.3817061217,10993,45,160801,3.90625,256.48614404046
983.88671875,67716.856782326,1110.3414151732,11142,43,160801,1.953125,256.48976165559
985.83984375,67841.528902714,1110.3004704713,11238,42,160801,1.953125,256.49308031608
987.79296875,67967.375226651,1110.2588671727,11334,42,160801,1.953125,256.49615364172
989.74609375,68092.284909172,1110.2166653021,11430,42,160801,1.953125,256.49896608715
991.69921875,68212.357596289,1110.1739488554,11522,38,160801,1.953125,256.50151176483
993.65234375,68334.584906761,1110.1308108511,11616,40,160801,1.953125,256.50383975789
997.55859375,68401.067794324,1110.0444504775,11666,48,160801,3.90625,256.50791230612
1005.37109375,68460.963269623,1109.8713154102,11712,44,160801,7.8125,256.51454093667
1013.18359375,68589.5982689,1109.6977813682,11811,44,160801,7.8125,256.51951461443
1017.08984375,68781.890861479,1109.6104881316,11960,42,160801,3.90625,256.52170580452
1024.90234375,68840.258686896,1109.4429419889,12004,42,160801,7.8125,256.52484357188
1032.71484375,68971.041430415,1109.2784708948,12105,46,160801,7.8125,256.52805200085
1036.62109375,69159.975117392,1109.1963914633,12250,38,160801,3.90625,256.52953394204
1044.43359375,69225.579906467,1109.0379936014,12300,48,160801,7.8125,256.52998379902
1052.24609375,69353.471569777,1108.8819247548,12399,43,160801,7.8125,256.52805585419
1060.05859375,69474.998598341,1108.728387236,12494,39,160801,7.8125,256.52483951682
1075.68359375,69543.477578751,1108.4289675741,12547,49,160801,15.625,256.51688142423
1083.49609375,69676.948421401,1108.2802876389,12688,37,160801,7.8125,256.51178528866
1091.30859375,69796.82175058,1108.1351642521,12781,37,160801,7.8125,256.5056229639
1099.12109375,69927.611053341,1107.9923035938,12883,46,160801,7.8125,256.4994683763
1103.02734375,70116.453670448,1107.9211161414,13029,38,160801,3.90625,256.49673508389
1110.83984375,70174.099227655,1107.7816252355,13073,42,160801,7.8125,256.49094198318
1118.65234375,70297.266135586,1107.6433410017,13168,39,160801,7.8125,256.48455859761
1126.46484375,70433.249665087,1107.506616864,13274,50,160801,7.8125,256.47757481635
1130.37109375,70628.822769167,1107.4385047923,13425,43,160801,3.90625,256.47430581472
1138.18359375,70686.414783409,1107.3047903624,13469,42,160801,7.8125,256.46702926398
1145.99609375,70822.313509872,1107.1723134461,13574,49,160801,7.8125,256.45907953208
1153.80859375,70949.662494809,1107.0414755547,13673,43,160801,7.8125,256.45038306418
1157.71484375,71139.020722189,1106.9764158426,13819,38,160801,3.90625,256.44598828371
1165.52734375,71195.284903585,1106.8487655166,13862,41,160801,7.8125,256.43639430934
1173.33984375,71320.77943476,1106.7226077971,13959,41,160801,7.8125,256.42719975858
1181.15234375,71443.602839052,1106.5983919045,14055,40,160801,7.8125,256.41808777517
1188.96484375,71567.787916991,1106.4763326333,14151,40,160801,7.8125,256.40820563911
1196.77734375,71692.748323376,1106.3566374345,14249,42,160801,7.8125,256.39754443526
1204.58984375,71820.214348841,1106.2395545322,14348,43,160801,7.8125,256.38621451997
1212.40234375,71946.438524068,1106.1253950268,14447,43,160801,7.8125,256.37456252715
1216.30859375,72133.944087752,1106.069241662,14592,37,160801,3.90625,256.36898273138
1224.12109375,72198.210573923,1105.960655821,14641,47,160801,7.8125,256.35753060956
1228.02734375,72392.101973546,1105.9073856685,14791,42,160801,3.90625,256.35198863605
1235.83984375,72460.421017172,1105.8052405537,14843,50,160801,7.8125,256.34058391742
1239.74609375,72655.36783994,1105.7555639983,14993,42,160801,3.90625,256.33520797722
1243.65234375,72782.729954064,1105.7076271837,15091,44,160801,3.90625,256.32989708969
1251.46484375,72849.416322589,1105.61731015,15141,48,160801,7.8125,256.31928467098
1255.37109375,73038.442136436,1105.5742844377,15288,39,160801,3.90625,256.31442314848
1259.27734375,73162.981495401,1105.5336613717,15383,41,160801,3.90625,256.3097172753
1263.18359375,73285.173143694,1105.495431035,15475,38,160801,3.90625,256.30526274318
1267.08984375,73413.048953699,1105.4597574435,15565,36,160801,3.90625,256.30109056877
1270.99609375,73531.986414967,1105.4268642049,15651,32,160801,3.90625,256.29729277089
1274.90234375,73650.73793131,1105.3969981444,15735,30,160801,3.90625,256.29387244128
1278.80859375,73765.401155082,1105.370408155,15818,29,160801,3.90625,256.29087379015
1282.71484375,73885.336303565,1105.3473241219,15902,30,160801,3.90625,256.28840649616
1290.52734375,73956.462894463,1105.3142874431,15953,49,160801,7.8125,256.28542500024
1306.15234375,74030.139601657,1105.302432491,16006,49,160801,15.625,256.29056730985
1313.96484375,74184.757151353,1105.3041087234,16183,39,160801,7.8125,256.29680992512
1321.77734375,74309.607533566,1105.3031387116,16273,34,160801,7.8125,256.30300368349
1329.58984375,74440.41421479,1105.2886882833,16373,44,160801,7.8125,256.30759480844
1337.40234375,74573.640284421,1105.2533820475,16475,46,160801,7.8125,256.3094363748
1341.30859375,74754.614106449,1105.226064475,16615,32,160801,3.90625,256.30915563418
1345.21484375,74878.985713295,1105.1932204803,16709,40,160801,3.90625,256.30799680903
1349.12109375,75004.514217325,1105.1545628372,16804,41,160801,3.90625,256.30600448799
1353.02734375,75132.411113487,1105.1101463401,16901,43,160801,3.90625,256.3032984397
1356.93359375,75261.895693375,1105.0601828768,17000,45,160801,3.90625,256.29997363704
1364.74609375,75330.192911939,1104.9441522274,17051,49,160801,7.8125,256.29131775177
1372.55859375,75463.911306914,1104.809549293,17151,45,160801,7.8125,256.28078245387
1388.18359375,75528.51590468,1104.4970574918,17200,46,160801,15.625,256.25450330411
1395.99609375,75673.966236379,1104.3314208934,17337,46,160801,7.8125,256.24092684239
1403.80859375,75800.477471669,1104.1632109659,17433,41,160801,7.8125,256.22665652016
1411.62109375,75933.556710072,1103.9929754184,17535,47,160801,7.8125,256.21188899382
1427.24609375,76003.234572355,1103.6410620076,17584,46,160801,15.625,256.17960184369
1435.05859375,76147.215361986,1103.473056502,17717,43,160801,7.8125,256.16490786242
1442.87109375,76280.56626947,1103.3049616995,17818,46,160801,7.8125,256.14947529979
1450.68359375,76411.940961698,1103.1278044109,17917,44,160801,7.8125,256.13310773854
1458.49609375,76548.81516619,1102.9277928494,18021,49,160801,7.8125,256.11463267246
1466.30859375,76685.557576993,1102.6832600434,18125,49,160801,7.8125,256.09252802022
1474.12109375,76815.177102726,1102.3647159069,18224,44,160801,7.8125,256.06468545758
1481.93359375,76947.762201203,1101.9513757415,18326,47,160801,7.8125,256.03283014785
1489.74609375,77075.183377428,1101.5338043574,18423,42,160801,7.8125,256.03082326037
1497.55859375,77199.915046049,1101.4329347775,18519,41,160801,7.8125,256.11681641932
1505.37109375,77330.77491377,1101.6893398987,18618,45,160801,7.8125,256.18536680881
1509.27734375,77528.794922145,1101.8709428209,18769,45,160801,3.90625,256.20864572663
1513.18359375,77644.730430034,1102.0650456723,18857,34,160801,3.90625,256.22848486549
1517.08984375,77770.480279949,1102.2609928186,18953,42,160801,3.90625,256.24631891826
1524.90234375,77840.173433784,1102.6252653062,19005,50,160801,7.8125,256.27718713326
1528.80859375,78028.613197936,1102.7915304099,19149,37,160801,3.90625,256.29054499272
1532.71484375,78142.873216086,1102.9427246529,19235,32,160801,3.90625,256.30236814738
1540.52734375,78206.487637803,1103.1828722073,19283,46,160801,7.8125,256.32108145705
1548.33984375,78333.370765957,1103.3544420155,19380,42,160801,7.8125,256.33406119501
1552.24609375,78508.457175947,1103.4213700697,19515,28,160801,3.90625,256.33896586641
1560.05859375,78567.499031727,1103.5045958395,19559,42,160801,7.8125,256.34453422215
1575.68359375,78632.438297434,1103.5250425731,19609,47,160801,15.625,256.34345520452
1591.30859375,78710.922643639,1103.4501622682,19705,45,160801,15.625,256.33480983753
1599.12109375,78851.37163995,1103.3948762753,19877,35,160801,7.8125,256.32936585509
1606.93359375,78968.080725357,1103.3270976189,19966,34,160801,7.8125,256.32267961168
1614.74609375,79082.173986001,1103.2468418533,20054,33,160801,7.8125,256.31494387066
1622.55859375,79197.750003498,1103.1540238147,20143,33,160801,7.8125,256.30603902591
1638.18359375,79256.154742231,1102.9123283633,20189,42,160801,15.625,256.28201816812
1645.99609375,79373.450101137,1102.769176881,20309,27,160801,7.8125,256.26783520187
1653.80859375,79479.421824985,1102.5982761453,20392,27,160801,7.8125,256.25009944845
1661.62109375,79597.401457715,1102.3851011767,20481,34,160801,7.8125,256.22719762256
1669.43359375,79719.791223439,1102.1084697328,20574,38,160801,7.8125,256.19661299227
1673.33984375,79900.190945163,1101.9429884564,20711,30,160801,3.90625,256.17822975155
1677.24609375,80013.014776556,1101.7520307415,20797,32,160801,3.90625,256.15682104726
1681.15234375,80122.878650364,1101.5327601072,20880,29,160801,3.90625,256.13231266716
1685.05859375,80235.18295479,1101.2862107303,20966,32,160801,3.90625,256.10570250459
1688.96484375,80347.191641935,1101.0229243906,21051,31,160801,3.90625,256.08069705156
1692.87109375,80457.175930248,1100.7714945437,21135,30,160801,3.90625,256.06741087196
1700.68359375,80525.649573795,1100.483843179,21186,49,160801,7.8125,256.11956058842
1716.30859375,80588.959625567,1100.7894601777,21234,46,160801,15.625,256.20076650551
1720.21484375,80852.622193287,1100.918623564,21441,41,160801,3.90625,256.2130254067
1728.02734375,80911.912321797,1101.1890744603,21486,43,160801,7.8125,256.23474775681
1743.65234375,80980.920101335,1101.6616909405,21538,49,160801,15.625,256.26881640206
1759.27734375,81072.588200881,1102.0209060852,21660,50,160801,15.625,256.29209356651
1774.90234375,81155.622640236,1102.2647820123,21758,49,160801,15.625,256.30415607609
1790.52734375,81235.284253353,1102.411160936,21855,46,160801,15.625,256.30645108558
1806.15234375,81330.309888541,1102.4824546834,22023,43,160801,15.625,256.30061573394
1821.77734375,81403.714166239,1102.4988018101,22112,44,160801,15.625,256.28862188334
1837.40234375,81477.853351458,1102.4761430939,22201,44,160801,15.625,256.27226981877
1853.02734375,81553.670654006,1102.4263252263,22292,46,160801,15.625,256.25312880457
1868.65234375,81628.428789385,1102.3578588855,22381,44,160801,15.625,256.2322365487
1884.27734375,81708.408834599,1102.276778319,22475,49,160801,15.625,256.21020988994
1899.90234375,81788.719304472,1102.1873144209,22568,48,160801,15.625,256.18757058568
1915.52734375,81865.205558336,1102.0924241716,22659,46,160801,15.625,256.1643854126
1931.15234375,81947.033149612,1101.994169608,22753,49,160801,15.625,256.14089862244
1946.77734375,82028.118202724,1101.8939805307,22847,49,160801,15.625,256.11746136023
1962.40234375,82107.125207119,1101.7928701692,22939,47,160801,15.625,256.09438289795
1978.02734375,82173.642522775,1101.6915512448,23023,39,160801,15.625,256.07199665392
1993.65234375,82237.173460184,1101.5905244647,23104,36,160801,15.625,256.05016793171
2009.27734375,82301.242907962,1101.4901492906,23186,37,160801,15.625,256.02862529921
2024.90234375,82370.143506222,1101.3906796312,23271,40,160801,15.625,256.00722248078
2040.52734375,82435.9360165,1101.2923090017,23354,38,160801,15.625,255.98597942278
2056.15234375,82502.711004785,1101.1951829758,23437,38,160801,15.625,255.96518477103
2071.77734375,82573.638907667,1101.0994144646,23524,42,160801,15.625,255.94500503353
2087.40234375,82638.391240137,1101.0051056614,23606,37,160801,15.625,255.92543937733
2103.02734375,82711.865241721,1100.9123377122,23695,44,160801,15.625,255.90626421069
2118.65234375,82794.598475176,1100.821186154,23835,39,160801,15.625,255.88713315271
2134.27734375,82861.402038818,1100.7317456357,23926,37,160801,15.625,255.8680373397
2142.08984375,83014.726525689,1100.6876816095,24125,39,160801,7.8125,255.85870228557
2157.71484375,83081.16601148,1100.6013204522,24177,48,160801,15.625,255.83998466499
2173.33984375,83159.533034147,1100.516638102,24275,45,160801,15.625,255.82192544974
2188.96484375,83248.325836664,1100.4341720742,24416,45,160801,15.625,255.80465128927
2204.58984375,83342.886029975,1100.3542475617,24559,49,160801,15.625,255.78802598692
2220.21484375,83432.385186017,1100.2772659189,24706,43,160801,15.625,255.77187092927
2235.83984375,83536.927815737,1100.2038199192,24941,36,160801,15.625,255.75606835896
2251.46484375,83619.837860571,1100.1348081628,25071,41,160801,15.625,255.74084021302
2267.08984375,83705.575011459,1100.0716249915,25226,37,160801,15.625,255.72664290646
2282.71484375,83796.641627327,1100.0165197102,25384,44,160801,15.625,255.71419873241
2298.33984375,83877.541277686,1099.9732781812,25505,41,160801,15.625,255.70428011844
2313.96484375,83952.250639271,1099.9485313454,25595,45,160801,15.625,255.69750029949
2329.58984375,84028.253799912,1099.9542337299,25685,45,160801,15.625,255.6959288585
2345.21484375,84101.419086589,1100.0116361941,25773,44,160801,15.625,255.70518889122
2360.83984375,84183.695523259,1100.1523971462,25867,50,160801,15.625,255.73532590012
2368.65234375,84307.847192621,1100.2525488844,25995,31,160801,7.8125,255.75916203748
2376.46484375,84427.23117212,1100.3720241056,26087,36,160801,7.8125,255.78821624342
2392.08984375,84488.948659017,1100.6270854437,26135,44,160801,15.625,255.85228673
2407.71484375,84551.432960897,1100.7654935306,26211,37,160801,15.625,255.89710308085
2423.33984375,84622.641132899,1100.7587285365,26301,39,160801,15.625,255.91788508173
2438.96484375,84688.453293196,1100.6642079549,26386,36,160801,15.625,255.92264229646
2454.58984375,84754.13938754,1100.542991785,26467,33,160801,15.625,255.91934959641
2470.21484375,84858.323907086,1100.4222289548,26650,40,160801,15.625,255.91282747683
2485.83984375,84956.633384075,1100.3071077166,26864,32,160801,15.625,255.90572628917
2501.46484375,85044.182991077,1100.1969712734,27037,30,160801,15.625,255.89953453045
2517.08984375,85115.016349732,1100.0905760927,27169,27,160801,15.625,255.89499156745
2532.71484375,85175.750370761,1099.9869916607,27253,28,160801,15.625,255.89035931694
2548.33984375,85247.177787674,1099.8855746824,27379,28,160801,15.625,255.88613489608
2563.96484375,85326.236440711,1099.7858859697,27510,32,160801,15.625,255.88356408334
2579.58984375,85386.174001057,1099.6876325631,27589,30,160801,15.625,255.88455497141
2595.21484375,85443.427393733,1099.5905882403,27666,28,160801,15.625,255.88742534974
2610.83984375,85501.140996101,1099.4945670033,27743,28,160801,15.625,255.89001460957
2626.46484375,85559.038145586,1099.3994174259,27820,28,160801,15.625,255.89212422558
2642.08984375,85615.528922426,1099.3050223246,27897,28,160801,15.625,255.89410322678
2657.71484375,85673.965675807,1099.2112612423,27974,28,160801,15.625,255.89576841466
2673.33984375,85735.971032655,1099.118035077,28053,30,160801,15.625,255.89685494625
2688.96484375,85807.256530225,1099.0252516491,28174,30,160801,15.625,255.89750414871
2704.58984375,85873.019180624,1098.9328226676,28263,31,160801,15.625,255.89759306605
2720.21484375,85941.353233837,1098.8406382896,28363,30,160801,15.625,255.89692930482
2735.83984375,86034.838812625,1098.7486102956,28552,33,160801,15.625,255.8954493752
2751.46484375,86101.734545288,1098.6566421738,28647,34,160801,15.625,255.89311570612
2767.08984375,86176.234574815,1098.5646436299,28768,37,160801,15.625,255.89010701049
2782.71484375,86243.378611642,1098.4725321599,28856,37,160801,15.625,255.88663201294
2798.33984375,86309.365585434,1098.3802294609,28944,37,160801,15.625,255.88274840375
2813.96484375,86378.175311348,1098.2876554231,29033,38,160801,15.625,255.87864857057
2829.58984375,86476.316935699,1098.1947095571,29219,42,160801,15.625,255.87421236216
2845.21484375,86562.697188266,1098.101302028,29355,43,160801,15.625,255.86930288217
2860.83984375,86638.728443057,1098.0073536896,29458,42,160801,15.625,255.8640121841
2876.46484375,86722.768673381,1097.9127712056,29586,43,160801,15.625,255.85808399103
2892.08984375,86809.4259768,1097.8174576027,29717,46,160801,15.625,255.85181869677
2907.71484375,86890.852090553,1097.7213087315,29824,45,160801,15.625,255.84554540392
2923.33984375,87029.635490381,1097.6242032687,30181,42,160801,15.625,255.83908012496
2938.96484375,87132.530258429,1097.5260055382,30383,43,160801,15.625,255.8320213776
2954.58984375,87248.790265915,1097.4265594839,30644,44,160801,15.625,255.82452592051
2970.21484375,87321.700132272,1097.325689106,30732,43,160801,15.625,255.81678148375
2985.83984375,87394.692038688,1097.2231861338,30821,44,160801,15.625,255.80874877625
3001.46484375,87466.212787708,1097.1187871626,30908,42,160801,15.625,255.80044494974
3017.08984375,87539.690994466,1097.0121815024,30997,44,160801,15.625,255.79194207806
3032.71484375,87611.234944851,1096.9029688783,31084,42,160801,15.625,255.78340482448
3048.33984375,87681.613092183,1096.7906092317,31171,42,160801,15.625,255.77484850252
3063.96484375,87753.396942361,1096.6743980968,31258,42,160801,15.625,255.76580233792
3079.58984375,87825.32826341,1096.5533589752,31345,43,160801,15.625,255.75609150613
3095.21484375,87900.880074346,1096.4260812919,31434,45,160801,15.625,255.74603048606
3110.83984375,87974.904670631,1096.2903993356,31523,45,160801,15.625,255.73574166231
3126.46484375,88051.604701098,1096.1427419007,31613,46,160801,15.625,255.72507920704
3142.08984375,88146.68307438,1095.976644789,31763,48,160801,15.625,255.71329884534
3157.71484375,88227.924545582,1095.7788232246,31857,49,160801,15.625,255.69888685898
3165.52734375,88348.83408719,1095.665758988,31979,31,160801,7.8125,255.6906553989
3173.33984375,88466.290929402,1095.5330908867,32069,35,160801,7.8125,255.68060799532
3181.15234375,88575.980333125,1095.3697840501,32154,30,160801,7.8125,255.66789298261
3188.96484375,88685.608935171,1095.1585050261,32238,29,160801,7.8125,255.65107375197
3196.77734375,88799.324866253,1094.8728526226,32326,33,160801,7.8125,255.6280895061
3204.58984375,88911.29065088,1094.4797674667,32412,31,160801,7.8125,255.59695669057
3220.21484375,88965.36551014,1093.5074972662,32453,39,160801,15.625,255.58784450537
3235.83984375,89082.978849397,1093.7108719008,32544,35,160801,15.625,255.70758287748
3267.08984375,89151.932116042,1094.7348549564,32598,50,160801,31.25,255.77896352945
3282.71484375,89291.809390914,1095.1606660546,32738,43,160801,15.625,255.80387138379
3298.33984375,89362.086927661,1095.4772498879,32823,42,160801,15.625,255.8205612746
3313.96484375,89513.169173285,1095.6966800357,33197,46,160801,15.625,255.83009331122
3329.58984375,89600.784093894,1095.8386896631,33323,46,160801,15.625,255.83394448245
3345.21484375,89662.950672391,1095.9219682264,33407,33,160801,15.625,255.83358332698
3360.83984375,89731.594194407,1095.9618044952,33507,36,160801,15.625,255.83010325145
3376.46484375,89803.101776642,1095.9699605234,33599,40,160801,15.625,255.8244751608
3392.08984375,89871.45607688,1095.9552014549,33698,36,160801,15.625,255.81738419694
3407.71484375,89936.351528049,1095.9239368091,33786,35,160801,15.625,255.80953567918
3423.33984375,89999.334524646,1095.8807953154,33873,34,160801,15.625,255.80135182998
3438.96484375,90080.966991064,1095.8290920715,34030,34,160801,15.625,255.7930383968
3454.58984375,90146.341990691,1095.7711887706,34120,36,160801,15.625,255.7847362766
3470.21484375,90210.148271308,1095.7087591922,34208,34,160801,15.625,255.77652801444
3485.83984375,90276.502685713,1095.6429816318,34308,34,160801,15.625,255.76841385174
3501.46484375,90363.516058751,1095.5746769048,34479,35,160801,15.625,255.76038922724
3517.08984375,90425.378544109,1095.5044074527,34567,33,160801,15.625,255.75254680411
3532.71484375,90492.466216442,1095.4325493487,34659,36,160801,15.625,255.74502156112
3548.33984375,90556.052477519,1095.359341943,34741,37,160801,15.625,255.73797678187
3563.96484375,90621.119858385,1095.2849242607,34823,37,160801,15.625,255.73158835469
3579.58984375,90679.350654386,1095.2093580345,34901,33,160801,15.625,255.72590203333
3595.21484375,90738.116228046,1095.1326408628,34978,32,160801,15.625,255.72096133077
3610.83984375,90798.040752138,1095.054712348,35057,34,160801,15.625,255.71681642241
3626.46484375,90857.593134116,1094.9754596217,35135,33,160801,15.625,255.71334451167
3642.08984375,90921.550475298,1094.8947201471,35217,37,160801,15.625,255.71020219156
3657.71484375,90985.048651054,1094.8122736791,35298,36,160801,15.625,255.70715222972
3673.33984375,91048.667421549,1094.727821599,35380,37,160801,15.625,255.70416914837
3688.96484375,91117.620588567,1094.6409643077,35465,40,160801,15.625,255.70127373679
3704.58984375,91182.130313239,1094.5511739038,35546,36,160801,15.625,255.6983495739
3720.21484375,91253.612874297,1094.4577380787,35629,38,160801,15.625,255.69526312201
3735.83984375,91319.755268445,1094.359656155,35710,37,160801,15.625,255.69209923141
3751.46484375,91383.688165441,1094.2554703917,35788,34,160801,15.625,255.68872589765
3767.08984375,91458.69490518,1094.142953236,35875,43,160801,15.625,255.68484235817
3782.71484375,91546.266566226,1094.0184598075,35969,50,160801,15.625,255.68030236602
3798.33984375,91614.013815527,1093.8755008503,36057,36,160801,15.625,255.67447550542
3813.96484375,91682.78255728,1093.70117824,36138,36,160801,15.625,255.66585066467
3829.58984375,91750.754681236,1093.4664093462,36216,38,160801,15.625,255.65074238801
3837.40234375,91880.215021786,1093.3181884387,36336,30,160801,7.8125,255.63988570588
3845.21484375,91997.967582923,1093.1284977894,36422,31,160801,7.8125,255.62412050601
3853.02734375,92116.844157173,1092.877008287,36507,30,160801,7.8125,255.60123012182
3860.83984375,92235.858995097,1092.5389792414,36594,32,160801,7.8125,255.56842595517
3868.65234375,92367.839315898,1092.1003890815,36690,41,160801,7.8125,255.52596142069
3884.27734375,92424.310309272,1091.403486365,36733,41,160801,15.625,255.56582810912
3915.52734375,92490.662878031,1092.26861533,36784,47,160801,31.25,255.70588177926
3946.77734375,92571.981015878,1093.1225221663,36874,47,160801,31.25,255.77908868523
3954.58984375,92881.145706948,1093.3147392578,37618,38,160801,7.8125,255.79587706315
3970.21484375,92943.274806202,1093.6061670248,37663,42,160801,15.625,255.82362961512
3985.83984375,93048.009307012,1093.8130811106,37867,40,160801,15.625,255.84620953238
4001.46484375,93117.859550679,1093.9518706826,37952,36,160801,15.625,255.8645625614
4017.08984375,93203.900672369,1094.0386449917,38057,45,160801,15.625,255.87978185895
4032.71484375,93286.065004993,1094.0869068094,38154,46,160801,15.625,255.89290226436
4048.33984375,93352.085400854,1094.1071598997,38238,33,160801,15.625,255.90479951379
4063.96484375,93424.329747085,1094.1072557544,38327,38,160801,15.625,255.91600907557
4079.58984375,93496.088149633,1094.0929326193,38415,37,160801,15.625,255.92674747973
4095.21484375,93556.965553579,1094.0683317354,38497,31,160801,15.625,255.93710205276
4110.83984375,93621.801749447,1094.0364200697,38583,35,160801,15.625,255.94713208577
4126.46484375,93677.438400316,1093.9993131646,38663,29,160801,15.625,255.95675810467
4142.08984375,93734.984066804,1093.9585138848,38744,30,160801,15.625,255.96601623656
4157.71484375,93791.504910652,1093.9150881377,38825,30,160801,15.625,255.97494415869
4173.33984375,93848.50845544,1093.8697926535,38905,29,160801,15.625,255.98351783695
4188.96484375,93905.603967311,1093.8231668505,38986,30,160801,15.625,255.99174892571
4204.58984375,93961.945280365,1093.7755966773,39066,29,160801,15.625,255.99973396428
4220.21484375,94016.052451726,1093.7273562911,39145,28,160801,15.625,256.00760585805
4235.83984375,94069.408184521,1093.6786393507,39223,27,160801,15.625,256.01550842909
4251.46484375,94121.670651517,1093.6295815817,39301,27,160801,15.625,256.02346858767
4267.08984375,94175.158241318,1093.5802784489,39379,27,160801,15.625,256.03156685732
4282.71484375,94226.31134273,1093.5307992456,39456,26,160801,15.625,256.03990817662
4298.33984375,94299.146891641,1093.4811940589,39610,26,160801,15.625,256.04855896909
4313.96484375,94382.650274098,1093.431497466,39809,26,160801,15.625,256.05745472327
4329.58984375,94461.358196975,1093.3817316057,39990,25,160801,15.625,256.06648639872
4345.21484375,94511.174368562,1093.3319097201,40066,25,160801,15.625,256.07551249929
4360.83984375,94695.849335879,1093.2820398118,40664,25,160801,15.625,256.08441409786
4376.46484375,94748.597382664,1093.232126551,40749,25,160801,15.625,256.09302136437
4392.08984375,94799.654282112,1093.1821704381,40832,23,160801,15.625,256.10124315436
4407.71484375,94850.935440713,1093.1321692198,40916,24,160801,15.625,256.1090753548
4423.33984375,94903.554096194,1093.0821179032,41000,24,160801,15.625,256.11658550779
4438.96484375,94967.008516176,1093.032011216,41093,33,160801,15.625,256.12378137321
4454.58984375,95023.566783399,1092.9818424053,41180,27,160801,15.625,256.13073116585
4470.21484375,95077.488728871,1092.9316023941,41266,26,160801,15.625,256.13751217306
4485.83984375,95132.775086911,1092.8812788903,41352,26,160801,15.625,256.14428319295
4501.46484375,95195.394971537,1092.8308588915,41478,24,160801,15.625,256.15112159206
4517.08984375,95250.676690039,1092.7803306272,41564,26,160801,15.625,256.15799037194
4532.71484375,95329.993783711,1092.7296821524,41748,25,160801,15.625,256.1648612606
4548.33984375,95406.71425708,1092.6788982508,41921,25,160801,15.625,256.17172929509
4563.96484375,95488.010520564,1092.6279606001,42110,27,160801,15.625,256.17858391464
4579.58984375,95539.241817231,1092.5768498025,42194,23,160801,15.625,256.18528801926
4595.21484375,95592.064265867,1092.5255479084,42280,25,160801,15.625,256.19180470821
4610.83984375,95657.678893213,1092.4740363845,42384,31,160801,15.625,256.19816993179
4626.46484375,95720.074278205,1092.4222910464,42478,32,160801,15.625,256.20451074993
4642.08984375,95810.362727948,1092.3702823909,42704,25,160801,15.625,256.21086734186
4657.71484375,95858.966862982,1092.3179796002,42780,24,160801,15.625,256.21699189397
4673.33984375,95910.083767755,1092.265353194,42857,25,160801,15.625,256.22280280876
4688.96484375,95960.049209642,1092.2123718149,42934,25,160801,15.625,256.22838871558
4704.58984375,96011.150329633,1092.1589989137,43011,25,160801,15.625,256.23377466312
4720.21484375,96062.537051136,1092.1051919236,43089,26,160801,15.625,256.23897532332
4735.83984375,96113.445807962,1092.0509025267,43166,25,160801,15.625,256.24398253512
4751.46484375,96191.469442141,1091.9960747252,43332,29,160801,15.625,256.24888482193
4767.08984375,96251.401196609,1091.9406458144,43439,26,160801,15.625,256.25363865237
4782.71484375,96302.960574979,1091.8845498244,43518,26,160801,15.625,256.2580489147
4798.33984375,96362.26238481,1091.827716163,43628,25,160801,15.625,256.26201607424
4813.96484375,96468.56420456,1091.7700593888,43926,27,160801,15.625,256.26555304576
4829.58984375,96526.141459021,1091.7114724526,44029,26,160801,15.625,256.26869268448
4845.21484375,96577.346920857,1091.6518306429,44102,28,160801,15.625,256.27145248311
4860.83984375,96629.633396103,1091.5909937326,44175,28,160801,15.625,256.27383763365
4876.46484375,96679.492731831,1091.5287960069,44247,27,160801,15.625,256.27580179224
4892.08984375,96732.163971939,1091.4650354308,44320,28,160801,15.625,256.27737255996
4907.71484375,96783.540579085,1091.3994655554,44393,28,160801,15.625,256.27857751424
4923.33984375,96837.268344764,1091.3317787462,44467,29,160801,15.625,256.27942009875
4938.96484375,96891.120560069,1091.2615870486,44542,30,160801,15.625,256.27983043543
4954.58984375,96944.571651634,1091.1883980517,44615,29,160801,15.625,256.27984580303
4970.21484375,96996.866789567,1091.1115581789,44688,29,160801,15.625,256.27962366216
4985.107421875,97061.259103185,1091.0342251512,44801,29,160801,14.892578125,256.2791270322
5000,97104.179885329,1090.9517220545,44835,31,160801,14.892578125,256.27791377095
