time,active_time,area_h,evaluations,iterations,nodes,step_size,von_mises
0,0,2495.535032879,0,0,0,0,0
62.5,267.109361935,2497.4586936758,177,19,160801,62.5,0.14562786070575
93.75,478.178175217,2497.4551917407,325,42,160801,31.25,0.14791142376434
125,595.58975889,2497.4490503077,409,30,160801,31.25,0.15178767867286
156.25,718.516457298,2497.4393560468,498,35,160801,31.25,0.15799957335274
187.5,850.526143669,2497.4238430629,593,41,160801,31.25,0.16814133618919
203.125,1019.03547716,2497.4134313499,716,17,160801,15.625,0.17501158775579
218.75,1132.651642076,2497.4000583721,798,28,160801,15.625,0.18385653547734
234.375,1253.431453427,2497.3825762459,883,31,160801,15.625,0.19540700071911
250,1370.741525655,2497.3591850644,968,31,160801,15.625,0.21080153662342
265.625,1499.472338676,2497.3268990005,1062,40,160801,15.625,0.23191728986004
281.25,1638.437448204,2497.2803964904,1162,46,160801,15.625,0.2621554677825
296.875,1782.424287098,2497.2092779579,1266,50,160801,15.625,0.30842049446461
304.6875,1983.477478114,2497.1614148506,1412,40,160801,7.8125,0.33977060616867
312.5,2098.522871443,2497.099392131,1493,27,160801,7.8125,0.38093311557574
320.3125,2220.603901133,2497.0167407309,1578,31,160801,7.8125,0.43700650745796
328.125,2362.682908097,2496.9028821738,1668,36,160801,7.8125,0.51693841816758
335.9375,2500.842975274,2496.7398561298,1763,41,160801,7.8125,0.63706482048992
343.75,2648.9231941,2496.4961619825,1865,48,160801,7.8125,0.82821621149163
347.65625,2850.741027842,2496.3340803443,2005,34,160801,3.90625,0.96205834981803
351.5625,2982.082118659,2496.1312648907,2095,36,160801,3.90625,1.1362050952265
355.46875,3127.070453926,2495.8755447075,2192,43,160801,3.90625,1.365114194817
359.375,3276.73259009,2495.5516013841,2294,48,160801,3.90625,1.668177161497
363.28125,3417.354725115,2495.1410406616,2390,42,160801,3.90625,2.0701829679141
367.1875,3559.543434297,2494.6232881351,2487,43,160801,3.90625,2.6004686030306
371.09375,3697.370703875,2493.9774907063,2581,40,160801,3.90625,3.2904343400011
375,3848.773918893,2493.1849112718,2685,50,160801,3.90625,4.1685556375946
378.90625,3991.194167828,2492.2303882553,2787,48,160801,3.90625,5.2539320109183
380.859375,4180.340522655,2491.6972437387,2928,35,160801,1.953125,5.8666942489411
382.8125,4304.201478022,2491.1202991863,3019,37,160801,1.953125,6.5310967454974
384.765625,4424.298406475,2490.4979101646,3109,36,160801,1.953125,7.2464507228406
386.71875,4548.377604427,2489.8281656699,3201,38,160801,1.953125,8.0120195769804
388.671875,4668.618374977,2489.1088142776,3291,36,160801,1.953125,8.8273886594005
390.625,4786.767093008,2488.3372391476,3379,34,160801,1.953125,9.6927084665568
392.578125,4902.214237864,2487.5104869521,3466,33,160801,1.953125,10.608857112058
396.484375,4970.566656284,2485.6497746341,3516,48,160801,3.90625,12.630070556164
400.390625,5108.12216906,2483.5217327575,3619,49,160801,3.90625,14.889402887821
404.296875,5244.215141663,2481.1047780498,3720,47,160801,3.90625,17.411909200749
406.25,5435.100629259,2479.8028519873,3863,37,160801,1.953125,18.760674394143
410.15625,5504.846475783,2476.9450271758,3914,49,160801,3.90625,21.698060097608
412.109375,5697.276923195,2475.4308970161,4059,39,160801,1.953125,23.24776216532
414.0625,5823.262473886,2473.8525849671,4153,40,160801,1.953125,24.85544322044
417.96875,5893.152659191,2470.4772994202,4205,50,160801,3.90625,28.254016125445
419.921875,6096.792139885,2468.7283280656,4351,40,160801,1.953125,29.993276588698
421.875,6225.819021158,2466.9294062031,4446,41,160801,1.953125,31.759877425581
423.828125,6357.071189951,2465.0825743962,4542,42,160801,1.953125,33.546935670515
425.78125,6489.055299303,2463.1886697748,4639,43,160801,1.953125,35.349087688233
427.734375,6623.153722706,2461.2473801739,4735,42,160801,1.953125,37.162665645883
429.6875,6755.164062816,2459.2573370402,4832,43,160801,1.953125,38.985708561237
431.640625,6888.76745719,2457.2162655806,4929,43,160801,1.953125,40.817870811744
433.59375,7016.608668425,2455.1211766834,5025,42,160801,1.953125,42.660144666895
437.5,7087.701856707,2450.7145839923,5077,50,160801,3.90625,46.408162287983
439.453125,7280.315428546,2448.4331127258,5222,39,160801,1.953125,48.29781432751
441.40625,7411.970641247,2446.0821975462,5320,44,160801,1.953125,50.208684598715
443.359375,7537.005216612,2443.6589498187,5414,40,160801,1.953125,52.143557359747
445.3125,7663.418377904,2441.1607895556,5508,40,160801,1.953125,54.105180631422
447.265625,7793.85547682,2438.5858465744,5606,44,160801,1.953125,56.096060591396
449.21875,7918.369353622,2435.9332004704,5699,39,160801,1.953125,58.11829891041
451.171875,8046.22413852,2433.2030429883,5795,42,160801,1.953125,60.173500930063
453.125,8174.348842629,2430.3967705869,5890,41,160801,1.953125,62.262570933245
455.078125,8300.913583567,2427.5170023631,5985,41,160801,1.953125,64.385629331448
457.03125,8427.358091894,2424.5675212492,6079,40,160801,1.953125,66.541779834381
458.984375,8557.10786635,2421.5531431864,6176,43,160801,1.953125,68.728944920867
460.9375,8683.457395668,2418.4795248998,6270,40,160801,1.953125,70.94395007236
462.890625,8811.643824809,2415.3529252982,6366,42,160801,1.953125,73.182542508541
464.84375,8937.235380146,2412.1799382885,6459,39,160801,1.953125,75.439613907165
466.796875,9062.502915767,2408.9672162804,6553,40,160801,1.953125,77.709405221207
468.75,9189.34111519,2405.7212043178,6647,40,160801,1.953125,79.985780824226
470.703125,9309.474408796,2402.4479033385,6737,36,160801,1.953125,82.262576872254
472.65625,9434.38167415,2399.1526776183,6830,39,160801,1.953125,84.53391136255
474.609375,9556.205555674,2395.8401158312,6921,37,160801,1.953125,86.79453956756
476.5625,9680.103466095,2392.5139486165,7013,38,160801,1.953125,89.039934403452
478.515625,9803.142276605,2389.1770196904,7105,38,160801,1.953125,91.266384631971
480.46875,9925.753994217,2385.8313031594,7196,37,160801,1.953125,93.470965622356
482.421875,10050.055445929,2382.4779572633,7289,39,160801,1.953125,95.651673141011
484.375,10171.804738667,2379.117403978,7379,36,160801,1.953125,97.807380465069
486.328125,10293.331298608,2375.7494242584,7470,37,160801,1.953125,99.937829909417
488.28125,10417.358336252,2372.3732603882,7562,38,160801,1.953125,102.04344603658
490.234375,10537.447623375,2368.987719551,7652,36,160801,1.953125,104.12518772095
492.1875,10658.655645633,2365.5912753389,7742,36,160801,1.953125,106.18445136156
494.140625,10784.286033422,2362.1821665763,7836,40,160801,1.953125,108.22297143331
495.1171875,10986.988003868,2360.4733404834,7987,45,160801,0.9765625,109.23579204872
496.09375,11119.653242455,2358.7603667005,8086,45,160801,0.9765625,110.24419068322
497.0703125,11251.95592211,2357.0432164366,8184,44,160801,0.9765625,111.24833610494
498.046875,11383.360677102,2355.3217540053,8282,44,160801,0.9765625,112.24846808354
499.0234375,11515.678226644,2353.5958040305,8380,44,160801,0.9765625,113.24482888213
500,11646.788553032,2351.8651787445,8478,44,160801,0.9765625,114.23767476273
501.953125,11711.216886172,2348.3885224845,8525,45,160801,1.953125,116.2119191119
502.9296875,11910.812799067,2346.64279321,8674,43,160801,0.9765625,117.19604250976
504.8828125,11968.400707858,2343.1343045902,8716,40,160801,1.953125,119.15524027095
506.8359375,12090.089384298,2339.6034487579,8807,37,160801,1.953125,121.10723220387
508.7890625,12215.493898651,2336.0499157689,8900,39,160801,1.953125,123.05406446785
510.7421875,12334.616307147,2332.4744555892,8989,35,160801,1.953125,124.99718029341
512.6953125,12463.080252578,2328.8788740067,9084,41,160801,1.953125,126.93742248922
514.6484375,12598.513427955,2325.2660524554,9185,47,160801,1.953125,128.87499597094
518.5546875,12669.76602284,2318.0069616433,9237,50,160801,3.90625,132.73443526613
522.4609375,12799.475128194,2310.7329530339,9334,43,160801,3.90625,136.56950058047
524.4140625,13001.799566063,2307.1020180513,9484,44,160801,1.953125,138.47149844878
526.3671875,13135.265657786,2303.4851509823,9584,46,160801,1.953125,140.35410502088
528.3203125,13272.888257451,2299.8881415364,9686,48,160801,1.953125,142.21292527671
530.2734375,13410.980211367,2296.3157505429,9789,49,160801,1.953125,144.04397239347
532.2265625,13550.227518619,2292.771857176,9892,49,160801,1.953125,145.8438201276
534.1796875,13688.3702095,2289.2595152622,9995,49,160801,1.953125,147.609747555
536.1328125,13829.231162592,2285.7810261561,10099,50,160801,1.953125,149.33977625766
537.109375,14017.394754757,2284.0523436279,10240,35,160801,0.9765625,150.19274516749
539.0625,14077.987538515,2280.6275780261,10284,42,160801,1.953125,151.86661152683
541.015625,14215.851261272,2277.2400346108,10386,48,160801,1.953125,153.50270422305
541.9921875,14409.443752836,2275.5569983248,10530,38,160801,0.9765625,154.30884483383
542.96875,14533.897371314,2273.8831778433,10623,39,160801,0.9765625,155.10563849228
544.921875,14601.049668324,2270.5712318774,10672,47,160801,1.953125,156.66673611457
546.875,14732.657152133,2267.2974343586,10770,44,160801,1.953125,158.19167981495
547.8515625,14926.013579465,2265.6706516109,10914,38,160801,0.9765625,158.943515094
549.8046875,14982.451075887,2262.4533750255,10956,40,160801,1.953125,160.41619928967
551.7578125,15116.966617883,2259.2735651242,11055,45,160801,1.953125,161.85587921865
553.7109375,15243.048804269,2256.1306321962,11149,40,160801,1.953125,163.26406587939
555.6640625,15367.439846213,2253.0241139021,11241,38,160801,1.953125,164.64211422708
556.640625,15564.057042341,2251.4795247808,11388,41,160801,0.9765625,165.32303200399
557.6171875,15690.964356202,2249.9437709288,11482,40,160801,0.9765625,165.99675993373
559.5703125,15744.743599976,2246.909477782,11522,38,160801,1.953125,167.31742821463
561.5234375,15874.261784354,2243.9114640358,11618,42,160801,1.953125,168.6112554153
562.5,16069.3095071,2242.4208323785,11764,40,160801,0.9765625,169.25128189397
564.453125,16120.058859771,2239.477602095,11801,35,160801,1.953125,170.50649263071
566.40625,16248.844794601,2236.5717462095,11897,42,160801,1.953125,171.73702276663
568.359375,16368.247871475,2233.7039302256,11985,34,160801,1.953125,172.94340317596
570.3125,16502.730478563,2230.8749641425,12086,47,160801,1.953125,174.12598649009
572.265625,16626.665725044,2228.0856016933,12178,38,160801,1.953125,175.28507997699
574.21875,16753.105974674,2225.3364002117,12273,41,160801,1.953125,176.42112048983
576.171875,16882.1302142,2222.6276227001,12368,41,160801,1.953125,177.53469583583
578.125,17014.425110061,2219.9591878849,12467,45,160801,1.953125,178.62667125181
580.078125,17146.888956824,2217.3306729739,12565,44,160801,1.953125,179.69792994601
582.03125,17284.916604399,2214.741368753,12668,49,160801,1.953125,180.74931051145
583.984375,17422.762602083,2212.1903807559,12770,48,160801,1.953125,181.78156194397
584.9609375,17605.613721583,2210.9234343551,12907,31,160801,0.9765625,182.29322228369
585.9375,17720.212713965,2209.6658069877,12992,31,160801,0.9765625,182.80029043893
587.890625,17789.454582896,2207.1892711048,13043,49,160801,1.953125,183.79645953675
589.84375,17923.160984874,2204.7488148475,13142,45,160801,1.953125,184.77627792376
591.796875,18057.292503897,2202.3441277258,13242,46,160801,1.953125,185.74062407543
595.703125,18125.849652818,2197.6835762649,13292,48,160801,3.90625,187.60906255131
599.609375,18252.406715517,2193.169414797,13386,40,160801,3.90625,189.42125333695
603.515625,18384.292819736,2188.8140389242,13483,43,160801,3.90625,191.16999800611
605.46875,18573.82769294,2186.6796631174,13625,36,160801,1.953125,192.02511559916
609.375,18637.226850831,2182.587070192,13671,44,160801,3.90625,193.65752473935
613.28125,18774.211685768,2178.6780477214,13773,48,160801,3.90625,195.20262521576
617.1875,18909.344671396,2174.9547882501,13873,46,160801,3.90625,196.65719577821
619.140625,19105.789978529,2173.1418161712,14020,41,160801,1.953125,197.35882658845
623.046875,19177.215789374,2169.6968550109,14072,50,160801,3.90625,198.6791603693
625,19382.71534985,2168.0215161115,14225,47,160801,1.953125,199.31577415669
626.953125,19520.899785394,2166.3916233936,14327,48,160801,1.953125,199.93150882156
628.90625,19656.345488464,2164.8068003801,14428,47,160801,1.953125,200.527003962
630.859375,19793.088620431,2163.26646254,14529,47,160801,1.953125,201.10293079603
634.765625,19852.41288691,2160.3566878923,14573,42,160801,3.90625,202.18371602829
635.7421875,20101.162651338,2159.6396181202,14759,28,160801,0.9765625,202.44908136271
637.6953125,20170.007799753,2158.246665451,14810,49,160801,1.953125,202.96298438471
638.671875,20348.341393984,2157.5601231543,14943,27,160801,0.9765625,203.21573023538
640.625,20417.633053022,2156.2268857601,14994,49,160801,1.953125,203.70534558276
644.53125,20487.894661233,2153.7104676586,15045,49,160801,3.90625,204.62634771805
646.484375,20695.271023756,2152.4847166,15200,49,160801,1.953125,205.07364281794
650.390625,20757.000328102,2150.1668501854,15245,43,160801,3.90625,205.9170651263
654.296875,20887.166037091,2147.9669841385,15342,43,160801,3.90625,206.71440654575
658.203125,21019.541820374,2145.8780975056,15440,44,160801,3.90625,207.46707420886
662.109375,21145.153368991,2143.8960395614,15533,39,160801,3.90625,208.17203008354
664.0625,21342.769873702,2142.9294569305,15680,41,160801,1.953125,208.51147368225
666.015625,21467.217280258,2141.9896284164,15773,39,160801,1.953125,208.83884063769
669.921875,21533.489009418,2140.2157426054,15821,46,160801,3.90625,209.44990252138
671.875,21728.604609433,2139.3526684838,15967,40,160801,1.953125,209.74427835891
673.828125,21855.9525825,2138.5146504891,16061,40,160801,1.953125,210.02833443111
675.78125,21980.390237969,2137.7011816302,16154,39,160801,1.953125,210.30247919513
677.734375,22105.88236235,2136.9117223798,16247,39,160801,1.953125,210.56708451947
679.6875,22230.345397719,2136.1457162731,16340,39,160801,1.953125,210.82249710823
681.640625,22354.441667753,2135.4025998294,16432,38,160801,1.953125,211.0690369842
683.59375,22478.877121854,2134.6818110676,16525,39,160801,1.953125,211.30700866037
685.546875,22598.987644469,2133.9827967696,16614,35,160801,1.953125,211.53668293639
689.453125,22667.866960986,2132.6689053156,16665,49,160801,3.90625,211.9650542428
693.359375,22805.749526201,2131.4334935105,16767,48,160801,3.90625,212.36407016816
697.265625,22936.393989726,2130.2731895316,16865,44,160801,3.90625,212.73526433013
701.171875,23069.51217244,2129.1849602092,16964,45,160801,3.90625,213.08005508254
705.078125,23199.116049812,2128.1660279982,17061,43,160801,3.90625,213.39977659931
712.890625,23261.015124482,2126.3864640556,17106,43,160801,7.8125,213.948811523
720.703125,23389.010594257,2124.8397161288,17202,42,160801,7.8125,214.41893576358
728.515625,23525.250737755,2123.5003945064,17304,47,160801,7.8125,214.82522100768
736.328125,23657.381443918,2122.3314458318,17404,45,160801,7.8125,215.18958878647
744.140625,23779.678508367,2121.2808857544,17496,37,160801,7.8125,215.53845007374
751.953125,23915.732951892,2120.296494801,17598,48,160801,7.8125,215.88426068091
759.765625,24054.164925104,2119.3546318713,17701,49,160801,7.8125,216.20688264674
767.578125,24186.016210785,2118.4628308003,17799,44,160801,7.8125,216.49347932237
775.390625,24323.134066825,2117.635734773,17901,48,160801,7.8125,216.74680935768
779.296875,24516.266509685,2117.2384172616,18046,39,160801,3.90625,216.86585840612
783.203125,24641.308534803,2116.8606011198,18139,39,160801,3.90625,216.97782655182
787.109375,24768.981723774,2116.5020123498,18235,42,160801,3.90625,217.08314567237
794.921875,24839.262101691,2115.8595784368,18286,49,160801,7.8125,217.26920944675
802.734375,24955.932424207,2115.2882231236,18374,33,160801,7.8125,217.43213817612
810.546875,25079.976203473,2114.7883831481,18467,38,160801,7.8125,217.57211485747
818.359375,25203.775311425,2114.3616504635,18561,39,160801,7.8125,217.68910886874
826.171875,25331.470984876,2114.0090381436,18657,41,160801,7.8125,217.78403712418
833.984375,25466.034631179,2113.7269484005,18759,46,160801,7.8125,217.86121081836
841.796875,25604.905624541,2113.4995168334,18864,49,160801,7.8125,217.9318213877
849.609375,25737.38067923,2113.2901851045,18964,45,160801,7.8125,218.01432032207
857.421875,25872.449974657,2113.0500910679,19065,46,160801,7.8125,218.12432147226
865.234375,25993.472268808,2112.7541514103,19157,37,160801,7.8125,218.25953706947
873.046875,26112.771951485,2112.4175980804,19246,35,160801,7.8125,218.38750063344
880.859375,26228.203270689,2112.0691172394,19333,33,160801,7.8125,218.49951495328
888.671875,26349.397210984,2111.7291453207,19423,36,160801,7.8125,218.59959588247
896.484375,26468.965612048,2111.4094045428,19513,36,160801,7.8125,218.68969071491
904.296875,26600.718639627,2111.1186623301,19612,44,160801,7.8125,218.76928575618
912.109375,26731.834683305,2110.8664762552,19711,44,160801,7.8125,218.83622789287
919.921875,26861.472613864,2110.6641963547,19808,42,160801,7.8125,218.88745666389
927.734375,26989.148072145,2110.5246025902,19905,41,160801,7.8125,218.91973016475
935.546875,27125.034526646,2110.4607848919,20007,46,160801,7.8125,218.93096272351
939.453125,27310.891727963,2110.4504748741,20148,33,160801,3.90625,218.93218009442
943.359375,27426.576958064,2110.4618516508,20234,32,160801,3.90625,218.92938369407
947.265625,27545.124313319,2110.4940545672,20323,35,160801,3.90625,218.92450760671
951.171875,27664.792465095,2110.5441391006,20412,35,160801,3.90625,218.92075071684
955.078125,27777.595195863,2110.6059422032,20497,31,160801,3.90625,218.92290934956
962.890625,27840.360502968,2110.7361733784,20543,44,160801,7.8125,218.96353277519
970.703125,27972.625434468,2110.7310154516,20643,45,160801,7.8125,219.07252161645
986.328125,28038.197298863,2110.0604988258,20691,46,160801,15.625,219.43454691586
1001.953125,28167.967174662,2108.9052959667,20796,42,160801,15.625,219.79114288956
1009.765625,28361.433943587,2108.2862421376,20949,37,160801,7.8125,219.96641503514
1025.390625,28422.144863662,2107.0809032363,20994,43,160801,15.625,220.30307391244
1041.015625,28560.928487568,2105.9802375825,21108,47,160801,15.625,220.60927362248
1056.640625,28704.854245323,2105.0317096794,21235,50,160801,15.625,220.87220870047
1072.265625,28985.831265282,2104.249395049,22045,42,160801,15.625,221.08772231267
1087.890625,29061.437599422,2103.6259384838,22133,45,160801,15.625,221.25770175341
1103.515625,29133.586256946,2103.1435959927,22227,38,160801,15.625,221.3870825038
1119.140625,29213.28497681,2102.7814645695,22329,44,160801,15.625,221.48172452672
1134.765625,29282.13306666,2102.5193987172,22417,37,160801,15.625,221.54723107104
1150.390625,29345.652038502,2102.339809145,22503,34,160801,15.625,221.58843373156
1166.015625,29419.824146256,2102.2282925212,22605,38,160801,15.625,221.60915589917
1181.640625,29498.227152606,2102.1736962993,22723,41,160801,15.625,221.61226487192
1197.265625,29580.787982845,2102.1679715091,22817,49,160801,15.625,221.59965009381
1205.078125,29705.26603508,2102.1754310472,22943,30,160801,7.8125,221.58984137793
1212.890625,29822.899501657,2102.194420243,23032,33,160801,7.8125,221.57605170301
1220.703125,29936.677467411,2102.2244541018,23119,31,160801,7.8125,221.55837568924
1228.515625,30054.672927535,2102.2652935684,23208,33,160801,7.8125,221.53678773064
1236.328125,30172.438504844,2102.3169434551,23298,34,160801,7.8125,221.51116370595
1244.140625,30288.56623056,2102.379665855,23386,32,160801,7.8125,221.48127449623
1251.953125,30408.416636124,2102.4540099322,23477,35,160801,7.8125,221.446765816
1259.765625,30527.323623823,2102.5408588708,23567,34,160801,7.8125,221.40714669751
1267.578125,30653.431562009,2102.6415007157,23663,40,160801,7.8125,221.36173330169
1275.390625,30786.473259603,2102.7577292133,23763,44,160801,7.8125,221.309616739
1283.203125,30905.910769332,2102.8919846746,23854,35,160801,7.8125,221.24957677172
1291.015625,31041.628331395,2103.0475399039,23956,46,160801,7.8125,221.18000583791
1298.828125,31165.227362966,2103.2287292328,24050,38,160801,7.8125,221.09879420106
1306.640625,31292.568221459,2103.4411767169,24146,40,160801,7.8125,221.00326070519
1314.453125,31426.140352336,2103.6918702133,24247,45,160801,7.8125,220.89023435914
1322.265625,31556.222154937,2103.9886274192,24345,42,160801,7.8125,220.756713654
1330.078125,31685.371054341,2104.3377733794,24443,42,160801,7.8125,220.60206042098
1333.984375,31879.826949895,2104.5251135221,24589,38,160801,3.90625,220.52131726075
1341.796875,31939.135845419,2104.9443102721,24633,42,160801,7.8125,220.35142765413
1349.609375,32068.11937227,2105.370858886,24730,41,160801,7.8125,220.20091569169
1357.421875,32207.046485433,2105.7559682973,24834,49,160801,7.8125,220.09007848803
1365.234375,32341.005848144,2106.0855727066,24934,45,160801,7.8125,220.00195077701
1373.046875,32475.107499364,2106.3819736069,25035,46,160801,7.8125,219.90475949516
1380.859375,32610.312490661,2106.6450535743,25136,46,160801,7.8125,219.82261314993
1384.765625,32806.613598591,2106.74641153,25283,41,160801,3.90625,219.79893146749
1388.671875,32939.499818842,2106.8251913728,25381,44,160801,3.90625,219.78776330033
1396.484375,33009.772663516,2106.9170410124,25433,50,160801,7.8125,219.79636122864
1404.296875,33146.242721619,2106.9165200428,25534,47,160801,7.8125,219.82608112618
1412.109375,33271.863428946,2106.8175918453,25628,40,160801,7.8125,219.89828858643
1419.921875,33404.266581195,2106.6065181823,25727,44,160801,7.8125,220.01054491579
1427.734375,33527.189948504,2106.3115009536,25819,38,160801,7.8125,220.12691392958
1435.546875,33658.431846209,2105.9849478028,25916,43,160801,7.8125,220.23552432059
1443.359375,33784.512209321,2105.6563527972,26010,40,160801,7.8125,220.34702607087
1451.171875,33917.417151061,2105.3029350964,26108,44,160801,7.8125,220.49087851496
1455.078125,34126.275078759,2105.0900017344,26264,50,160801,3.90625,220.58308150089
1457.03125,34327.799858078,2104.9709514244,26414,44,160801,1.953125,220.63289810533
1460.9375,34396.66940372,2104.7098442612,26465,49,160801,3.90625,220.73576871622
1464.84375,34531.785872733,2104.4175718142,26565,46,160801,3.90625,220.83872645895
1468.75,34667.880940699,2104.1015951749,26666,47,160801,3.90625,220.9383294529
1472.65625,34793.321593895,2103.7710189084,26759,39,160801,3.90625,221.03356061348
1476.5625,34917.74608919,2103.4339517517,26852,39,160801,3.90625,221.12445976777
1480.46875,35042.283485473,2103.0966226294,26944,38,160801,3.90625,221.21120715923
1484.375,35166.913495981,2102.7635531398,27037,39,160801,3.90625,221.29381940042
1488.28125,35293.837906845,2102.4380495129,27131,40,160801,3.90625,221.37213768419
1492.1875,35419.566283607,2102.1226513502,27225,40,160801,3.90625,221.4459011908
1496.09375,35547.973542986,2101.8194207176,27320,41,160801,3.90625,221.51485178628
1500,35677.785725383,2101.5300451363,27417,43,160801,3.90625,221.57887591257
1503.90625,35803.683973239,2101.2557433364,27510,39,160801,3.90625,221.63819783602
1507.8125,35926.646410206,2100.9969614155,27602,38,160801,3.90625,221.69365876525
1511.71875,36054.840830017,2100.7528610787,27696,40,160801,3.90625,221.74702669133
1515.625,36181.912151726,2100.5206789367,27791,41,160801,3.90625,221.80120901552
1519.53125,36306.016529702,2100.2952357204,27883,38,160801,3.90625,221.86011539563
1527.34375,36376.598767363,2099.8528505214,27935,50,160801,7.8125,222.00358209255
1531.25,36568.685776718,2099.6021100863,28078,37,160801,3.90625,222.097097212
1535.15625,36695.321092079,2099.3358098597,28173,41,160801,3.90625,222.19827619118
1537.109375,36885.18149062,2099.195673019,28315,36,160801,1.953125,222.24944997179
1541.015625,36955.149006601,2098.9132438889,28367,50,160801,3.90625,222.34746791322
1544.921875,37094.165624962,2098.6274031039,28470,49,160801,3.90625,222.43970501346
1548.828125,37233.660384491,2098.3438687048,28574,50,160801,3.90625,222.52602809051
1550.78125,37431.493641385,2098.2025463666,28721,41,160801,1.953125,222.56761084571
1552.734375,37556.520151766,2098.0634355951,28815,40,160801,1.953125,222.60781126524
1554.6875,37679.130583219,2097.9268911977,28906,37,160801,1.953125,222.64666635117
1558.59375,37749.183958544,2097.6663628533,28958,50,160801,3.90625,222.71930153253
1560.546875,37936.905509797,2097.5390123328,29098,34,160801,1.953125,222.75425342349
1562.5,38065.009053229,2097.4151804605,29192,40,160801,1.953125,222.78786536049
1564.453125,38196.330835698,2097.2950326951,29284,38,160801,1.953125,222.82012384118
1566.40625,38325.638080278,2097.1787197569,29376,38,160801,1.953125,222.85100841735
1570.3125,38397.411218211,2096.9622111623,29426,48,160801,3.90625,222.90725845301
1574.21875,38541.462111848,2096.7627907949,29526,46,160801,3.90625,222.95757102033
1578.125,38685.94347443,2096.5817089843,29627,47,160801,3.90625,223.00157473709
1585.9375,38759.602172851,2096.2980462714,29679,50,160801,7.8125,223.06396938071
1593.75,38896.168723718,2096.0958097891,29778,41,160801,7.8125,223.10504048866
1597.65625,39081.705520467,2096.0078801159,29916,30,160801,3.90625,223.12748738938
1605.46875,39152.096780761,2095.8623219335,29967,49,160801,7.8125,223.18899263659
1609.375,39344.444926103,2095.7617504461,30111,37,160801,3.90625,223.24283639844
1613.28125,39460.697638514,2095.6409832119,30197,32,160801,3.90625,223.30845349539
1617.1875,39585.380810582,2095.5004873806,30290,39,160801,3.90625,223.3779752485
1621.09375,39704.415241456,2095.3449748497,30378,34,160801,3.90625,223.446172878
1625,39826.784421315,2095.1789044939,30469,37,160801,3.90625,223.51391666057
1628.90625,39959.749013031,2095.0030622181,30567,44,160801,3.90625,223.58538230212
1632.8125,40081.26014663,2094.8134938843,30657,36,160801,3.90625,223.66577432601
1640.625,40151.539310495,2094.3720450785,30708,49,160801,7.8125,223.8622984102
1648.4375,40286.399706026,2093.8073972854,30808,46,160801,7.8125,224.08329463104
1652.34375,40497.633228457,2093.4864500092,30964,50,160801,3.90625,224.19173543893
1656.25,40637.513887658,2093.1515259107,31068,50,160801,3.90625,224.29710654635
1660.15625,40774.709831055,2092.8086740879,31169,47,160801,3.90625,224.39985899168
1664.0625,40908.253923846,2092.4625154561,31268,45,160801,3.90625,224.50047152451
1667.96875,41034.874116083,2092.1163672723,31361,39,160801,3.90625,224.59923954128
1675.78125,41099.667652723,2091.4405254584,31409,46,160801,7.8125,224.78935010813
1679.6875,41308.422115237,2091.1066040868,31563,48,160801,3.90625,224.88268244222
1683.59375,41444.961124148,2090.7791490341,31664,47,160801,3.90625,224.97397031786
1687.5,41583.44885185,2090.4591394564,31766,48,160801,3.90625,225.06305597003
1695.3125,41649.886090471,2089.856604409,31815,47,160801,7.8125,225.23082444243
1703.125,41786.176209873,2089.2958070295,31916,46,160801,7.8125,225.38740048497
1710.9375,41919.093807599,2088.7812574005,32015,44,160801,7.8125,225.53182679891
1718.75,42052.568503718,2088.3157892187,32114,44,160801,7.8125,225.66354623369
1726.5625,42183.251608657,2087.9006262291,32212,43,160801,7.8125,225.78238936105
1734.375,42318.664272006,2087.5356569958,32312,45,160801,7.8125,225.88850308673
1742.1875,42456.528426219,2087.2198386674,32416,48,160801,7.8125,225.98225783022
1750,42595.620566196,2086.9516379487,32520,48,160801,7.8125,226.06412991316
1757.8125,42726.689811658,2086.7294579932,32619,43,160801,7.8125,226.13458224136
1765.625,42868.014241394,2086.5520445197,32725,50,160801,7.8125,226.19400717692
1767.578125,43139.768105739,2086.5102570984,32929,44,160801,1.953125,226.20832271733
1771.484375,43210.283675473,2086.4383646472,32980,49,160801,3.90625,226.23397627079
1775.390625,43346.062207896,2086.3779137034,33081,47,160801,3.90625,226.25682850891
1779.296875,43477.740024169,2086.3289810826,33178,43,160801,3.90625,226.27687505397
1783.203125,43598.348905646,2086.2917440158,33268,36,160801,3.90625,226.29408882672
1787.109375,43726.877829557,2086.2664864397,33363,41,160801,3.90625,226.30843521341
1794.921875,43794.963004427,2086.2649853613,33413,48,160801,7.8125,226.32545201955
1798.828125,43999.1677311,2086.2778753284,33566,45,160801,3.90625,226.33125120902
1806.640625,44062.794718515,2086.3584771212,33613,45,160801,7.8125,226.3318497488
1808.59375,44330.873467842,2086.3823141776,33814,41,160801,1.953125,226.33215013032
1810.546875,44459.797511042,2086.4096025099,33909,41,160801,1.953125,226.33220556429
1812.5,44588.66572259,2086.4400873429,34004,41,160801,1.953125,226.3322792275
1814.453125,44716.705279782,2086.4734049022,34099,41,160801,1.953125,226.33269372908
1816.40625,44845.087098363,2086.5090467842,34194,41,160801,1.953125,226.33384499321
1818.359375,44970.67506928,2086.5463260033,34288,40,160801,1.953125,226.33620700518
1820.3125,45097.66401986,2086.5843497445,34382,40,160801,1.953125,226.34034693143
1824.21875,45167.925042022,2086.6608869371,34434,50,160801,3.90625,226.35588694215
1832.03125,45225.527367067,2086.7689191808,34476,40,160801,7.8125,226.42369082783
1839.84375,45361.313789514,2086.7439219125,34577,47,160801,7.8125,226.51582189951
1855.46875,45424.373610404,2086.4113989641,34623,44,160801,15.625,226.68004910699
1863.28125,45622.091878212,2086.1952127949,34781,40,160801,7.8125,226.75605350176
1871.09375,45747.548729624,2085.975620347,34874,39,160801,7.8125,226.8309717246
1878.90625,45880.140916578,2085.7611881232,34973,45,160801,7.8125,226.9043434856
1886.71875,46003.172873505,2085.5595098015,35065,37,160801,7.8125,226.97469206884
1894.53125,46131.022923606,2085.3779472482,35161,41,160801,7.8125,227.04016577984
1902.34375,46267.089589977,2085.2233760821,35263,47,160801,7.8125,227.09891817192
1910.15625,46395.51799872,2085.1023306668,35361,42,160801,7.8125,227.14917003535
1914.0625,46577.840183261,2085.0512861012,35499,30,160801,3.90625,227.17188378477
1917.96875,46697.407792074,2085.0110880684,35589,36,160801,3.90625,227.19177548027
1921.875,46816.727656353,2084.9826678489,35678,35,160801,3.90625,227.20864209921
1925.78125,46930.901474077,2084.9670024179,35764,32,160801,3.90625,227.22228267811
1929.6875,47048.843281588,2084.9650872142,35852,34,160801,3.90625,227.23255389737
1933.59375,47180.909749342,2084.9778418233,35951,45,160801,3.90625,227.23941909661
1937.5,47299.71357742,2085.0059092836,36039,34,160801,3.90625,227.24310797769
1941.40625,47416.36226587,2085.0492758746,36127,34,160801,3.90625,227.24434070693
1945.3125,47537.064604243,2085.1066141966,36217,36,160801,3.90625,227.24468331478
1949.21875,47656.921839727,2085.1742903131,36307,36,160801,3.90625,227.24695245609
1953.125,47780.315067899,2085.2452265229,36399,38,160801,3.90625,227.25540587076
1957.03125,47918.641443278,2085.3084700847,36502,49,160801,3.90625,227.27485851157
1960.9375,48055.261314928,2085.3510346653,36603,47,160801,3.90625,227.30736816763
1968.75,48115.860405883,2085.346595801,36648,43,160801,7.8125,227.39250011014
1976.5625,48251.602872244,2085.2240941438,36749,46,160801,7.8125,227.46908796674
1984.375,48388.298376288,2085.050874749,36851,48,160801,7.8125,227.52925060864
1992.1875,48522.050691197,2084.8734088318,36950,45,160801,7.8125,227.57843567367
1994.140625,48790.690744082,2084.8288148418,37151,43,160801,1.953125,227.59009010281
1998.046875,48853.8766771,2084.7455233749,37197,44,160801,3.90625,227.6109544173
2000,49052.961362972,2084.7053810706,37346,43,160801,1.953125,227.62077602916
2001.953125,49183.847403968,2084.6671457515,37443,43,160801,1.953125,227.62991526189
2003.90625,49313.724355765,2084.6310405284,37540,43,160801,1.953125,227.63834320053
2007.8125,49375.44221547,2084.5689859266,37585,43,160801,3.90625,227.65197880612
2011.71875,49502.48895899,2084.519231046,37680,41,160801,3.90625,227.66187112037
2013.671875,49705.405159614,2084.4979414439,37831,45,160801,1.953125,227.66574621146
2017.578125,49772.883545512,2084.4712858979,37881,48,160801,3.90625,227.66865959634
2021.484375,49906.496090279,2084.463176988,37980,45,160801,3.90625,227.66597554724
2023.4375,50105.666933839,2084.464393847,38129,43,160801,1.953125,227.66302176709
2027.34375,50160.56125952,2084.4880977866,38169,38,160801,3.90625,227.65058740504
2031.25,50289.268630219,2084.5345332689,38265,42,160801,3.90625,227.63114222601
2035.15625,50426.435859979,2084.6031797144,38366,47,160801,3.90625,227.60507900055
2039.0625,50555.059526996,2084.6908696297,38462,42,160801,3.90625,227.57420433939
2041.015625,50759.912567957,2084.736931759,38614,46,160801,1.953125,227.55892013989
2044.921875,50819.146537918,2084.838738822,38658,42,160801,3.90625,227.5286107351
2048.828125,50955.60969542,2084.9334087321,38759,47,160801,3.90625,227.50706345176
2056.640625,51024.564302268,2085.0518568105,38810,49,160801,7.8125,227.51516655104
2064.453125,51148.915357394,2084.9763470496,38902,38,160801,7.8125,227.60991251202
2080.078125,51219.236432919,2084.356471428,38954,50,160801,15.625,227.8811176698
2095.703125,51364.675351308,2083.5132617158,39087,49,160801,15.625,228.11210429314
2103.515625,51551.809427598,2083.0827355912,39248,30,160801,7.8125,228.22132405995
2111.328125,51663.458856527,2082.6625680582,39332,29,160801,7.8125,228.32514564172
2119.140625,51782.626060507,2082.2602858535,39421,35,160801,7.8125,228.42201373132
2126.953125,51904.579197193,2081.8846608106,39512,36,160801,7.8125,228.50937436939
2134.765625,52026.282292513,2081.5459322303,39604,37,160801,7.8125,228.58390117758
2142.578125,52155.089270467,2081.2557841296,39701,41,160801,7.8125,228.64157696576
2150.390625,52286.794481021,2081.0273089917,39801,44,160801,7.8125,228.67785831608
2158.203125,52414.173192634,2080.8744126655,39897,40,160801,7.8125,228.68843999659
2162.109375,52621.431165873,2080.8202809989,40054,48,160801,3.90625,228.68668503633
2166.015625,52759.380882663,2080.7884340011,40156,48,160801,3.90625,228.67869939924
2173.828125,52829.689861036,2080.8096128916,40208,50,160801,7.8125,228.64561267097
2181.640625,52962.443836156,2080.8829827822,40308,44,160801,7.8125,228.62861022964
2189.453125,53087.247868651,2080.9297551864,40402,39,160801,7.8125,228.67268575758
2197.265625,53212.217533811,2080.8733197875,40496,39,160801,7.8125,228.7950263551
2205.078125,53328.112708188,2080.6692781456,40583,33,160801,7.8125,228.96030921592
2220.703125,53388.207388552,2079.8310708072,40627,42,160801,15.625,229.29523819046
2236.328125,53514.508871051,2078.7559017193,40730,39,160801,15.625,229.58072227203
2251.953125,53645.87369199,2077.6784390817,40833,43,160801,15.625,229.84890399649
2267.578125,53781.135974677,2076.6495422692,40947,45,160801,15.625,230.10108512634
2275.390625,53991.412990619,2076.150426532,41122,48,160801,7.8125,230.22257889061
2283.203125,54120.978400333,2075.6721815472,41220,43,160801,7.8125,230.33812347437
2291.015625,54250.899479501,2075.2179492186,41317,42,160801,7.8125,230.4469210847
2298.828125,54370.235199778,2074.790300041,41407,35,160801,7.8125,230.54825558076
2306.640625,54494.154556432,2074.3912441166,41500,38,160801,7.8125,230.6415163253
2314.453125,54629.648584201,2074.0224052376,41602,47,160801,7.8125,230.72615262095
2322.265625,54763.475108363,2073.6852602529,41703,45,160801,7.8125,230.80160563833
2330.078125,54894.274921756,2073.3814067956,41803,44,160801,7.8125,230.86720883598
2333.984375,55096.75152941,2073.2381589991,41956,45,160801,3.90625,230.89733970466
2337.890625,55227.270971452,2073.1040818692,42054,44,160801,3.90625,230.92463831951
2345.703125,55298.499681621,2072.8739653256,42106,50,160801,7.8125,230.96749811641
2353.515625,55426.834485914,2072.685390152,42204,42,160801,7.8125,230.99702745178
2357.421875,55622.76326024,2072.6028620801,42352,40,160801,3.90625,231.00786160232
2361.328125,55749.874172888,2072.5324838346,42447,41,160801,3.90625,231.01469061617
2365.234375,55880.339146453,2072.4748149097,42544,43,160801,3.90625,231.01739380094
2369.140625,56004.282439901,2072.4303007774,42637,39,160801,3.90625,231.01598039203
2373.046875,56133.426487909,2072.3990877872,42733,42,160801,3.90625,231.01073228743
2376.953125,56249.047091846,2072.3807114718,42820,33,160801,3.90625,231.00242132641
2380.859375,56373.895784026,2072.3736181148,42913,39,160801,3.90625,230.99259021329
2384.765625,56489.863529159,2072.3745216249,43000,33,160801,3.90625,230.98382508029
2388.671875,56607.365256854,2072.3777626051,43087,33,160801,3.90625,230.97976752331
2392.578125,56729.749327285,2072.3751678127,43179,38,160801,3.90625,230.98459341143
2396.484375,56857.636118851,2072.3571856905,43274,41,160801,3.90625,231.0018591764
2404.296875,56913.994396648,2072.2515839168,43316,40,160801,7.8125,231.07737061193
2412.109375,57043.316940232,2072.0400430546,43412,42,160801,7.8125,231.1748240502
2419.921875,57182.215817979,2071.7660923547,43516,50,160801,7.8125,231.26159150851
2427.734375,57312.911541201,2071.4677333717,43613,43,160801,7.8125,231.34064749379
2435.546875,57447.843835895,2071.1626150615,43714,47,160801,7.8125,231.41630437484
2439.453125,57644.393641852,2071.0091385638,43860,40,160801,3.90625,231.45364204964
2447.265625,57712.051495931,2070.7044275453,43910,48,160801,7.8125,231.52699664037
2455.078125,57849.118657479,2070.402707015,44012,48,160801,7.8125,231.59914609594
2458.984375,58048.992281355,2070.2525463128,44161,43,160801,3.90625,231.63496348712
2466.796875,58120.43343157,2069.9590026322,44213,50,160801,7.8125,231.70468047011
2474.609375,58258.410847657,2069.6739671148,44317,49,160801,7.8125,231.77211423872
2482.421875,58398.105684041,2069.3999411097,44421,49,160801,7.8125,231.83663182065
2490.234375,58532.186590536,2069.1392355439,44522,46,160801,7.8125,231.89762358514
2498.046875,58665.561730224,2068.8938603647,44622,45,160801,7.8125,231.95455188998
2505.859375,58795.3097034,2068.6655006777,44720,43,160801,7.8125,232.00692332265
2513.671875,58919.298935684,2068.4555671858,44814,38,160801,7.8125,232.05431814356
2521.484375,59044.276337516,2068.2653004132,44909,39,160801,7.8125,232.09633611055
2525.390625,59235.688043522,2068.1751274545,45054,37,160801,3.90625,232.11595862033
2533.203125,59290.551947103,2068.0168193075,45095,39,160801,7.8125,232.14898103049
2541.015625,59411.705227325,2067.8815307061,45187,36,160801,7.8125,232.17537803168
2548.828125,59532.158943425,2067.7712933888,45279,36,160801,7.8125,232.19439188891
2556.640625,59657.718942102,2067.6889292356,45375,39,160801,7.8125,232.20497325644
2564.453125,59782.476452579,2067.6383618531,45470,39,160801,7.8125,232.20574489363
2572.265625,59909.668996477,2067.6247792882,45566,40,160801,7.8125,232.19516878401
2580.078125,60054.676136662,2067.6540687085,45672,49,160801,7.8125,232.17224145594
2587.890625,60190.578867392,2067.7297807298,45771,42,160801,7.8125,232.13920617493
2595.703125,60326.817016424,2067.843306606,45869,42,160801,7.8125,232.10862686449
2603.515625,60459.064339221,2067.9533202247,45962,38,160801,7.8125,232.11154140954
2611.328125,60590.197184845,2067.9809847434,46055,39,160801,7.8125,232.16986788511
2626.953125,60648.936509197,2067.6792224259,46095,38,160801,15.625,232.32774444953
2642.578125,60780.159847682,2067.1650308051,46202,35,160801,15.625,232.46856323163
2658.203125,60919.508514627,2066.6197273297,46319,39,160801,15.625,232.60722366054
2673.828125,61053.056142327,2066.0833151868,46423,37,160801,15.625,232.74220643838
2689.453125,61193.201244336,2065.5789689939,46529,40,160801,15.625,232.86840800686
2705.078125,61353.614599823,2065.1222087589,46711,47,160801,15.625,232.98191040895
2720.703125,61443.551840953,2064.7204133727,46818,46,160801,15.625,233.08080634949
2736.328125,61525.516566516,2064.3748614017,46905,45,160801,15.625,233.16477554681
2751.953125,61593.141465735,2064.0833311576,46982,35,160801,15.625,233.23437377928
2767.578125,61660.27954355,2063.8420807037,47059,36,160801,15.625,233.29049555612
2783.203125,61729.126873339,2063.6471133582,47144,35,160801,15.625,233.33398479065
2798.828125,61804.497288651,2063.4949774991,47234,41,160801,15.625,233.36545906938
2814.453125,61875.654533942,2063.3833697109,47322,39,160801,15.625,233.38512509936
2830.078125,61963.90605534,2063.311806902,47430,50,160801,15.625,233.3924600004
2845.703125,62049.70537982,2063.282709989,47536,47,160801,15.625,233.3857165529
2853.515625,62190.601289046,2063.27994168,47677,39,160801,7.8125,233.37796239377
2861.328125,62319.857412121,2063.2909026298,47774,41,160801,7.8125,233.36513991489
2869.140625,62450.858950717,2063.3174515782,47873,43,160801,7.8125,233.34635079378
2876.953125,62580.316706435,2063.3623265655,47970,41,160801,7.8125,233.32028848741
2884.765625,62716.769649865,2063.4293828374,48073,47,160801,7.8125,233.2851300616
2892.578125,62855.727181783,2063.5237443724,48177,48,160801,7.8125,233.23851532038
2900.390625,62981.55584394,2063.6514646586,48272,39,160801,7.8125,233.1778899251
2908.203125,63108.680659262,2063.8174815941,48367,39,160801,7.8125,233.1022503657
2916.015625,63243.112511374,2064.018752261,48468,45,160801,7.8125,233.01737908851
2923.828125,63381.880419814,2064.2280335954,48572,48,160801,7.8125,232.94522080402
2939.453125,63451.155839046,2064.4156141767,48624,49,160801,15.625,232.96413681748
2955.078125,63574.621843349,2064.1730250367,48716,37,160801,15.625,233.07605442722
2970.703125,63700.27136092,2063.8016690896,48810,39,160801,15.625,233.17439472145
2986.328125,63836.142912763,2063.3967477645,48911,46,160801,15.625,233.27535363952
2994.140625,64022.647956617,2063.1885159473,49057,32,160801,7.8125,233.32688366429
3009.765625,64087.364895617,2062.7689197406,49104,45,160801,15.625,233.43042007769
3025.390625,64216.891531711,2062.3597218769,49219,39,160801,15.625,233.53139132749
3033.203125,64692.990093377,2062.159071251,50719,33,160801,7.8125,233.58092423076
3048.828125,64764.401600988,2061.7867895965,50772,50,160801,15.625,233.6730395521
3056.640625,64891.466985053,2061.6081753096,50897,31,160801,7.8125,233.71732843194
3072.265625,64962.244724571,2061.2877362584,50950,50,160801,15.625,233.79719707596
3087.890625,65043.061075325,2061.0039759257,51045,46,160801,15.625,233.86853332544
3095.703125,65174.305423948,2060.8708844987,51179,33,160801,7.8125,233.90219781566
3103.515625,65292.689065605,2060.7469598406,51268,33,160801,7.8125,233.93372765886
3111.328125,65412.339449652,2060.6319226597,51359,35,160801,7.8125,233.96319720525
3119.140625,65540.455411454,2060.5254459872,51455,40,160801,7.8125,233.99069080673
3126.953125,65660.4972446,2060.4271623345,51546,35,160801,7.8125,234.01629364461
3134.765625,65783.54134146,2060.3366771276,51638,36,160801,7.8125,234.04010102198
3150.390625,65853.104560475,2060.1842323041,51691,49,160801,15.625,234.08112944293
3166.015625,65934.52126046,2060.0562180088,51788,46,160801,15.625,234.11660828881
3173.828125,66067.672573049,2059.9975245914,51925,34,160801,7.8125,234.13315597383
3189.453125,66137.331020858,2059.9013324295,51977,48,160801,15.625,234.1613916319
3197.265625,66271.758531193,2059.8574615492,52115,35,160801,7.8125,234.17456624138
3205.078125,66394.202037509,2059.8180787644,52207,36,160801,7.8125,234.18671011393
3212.890625,66518.893625935,2059.7828461255,52302,39,160801,7.8125,234.19789599093
3220.703125,66639.799965741,2059.7514608073,52393,35,160801,7.8125,234.20819780609
3236.328125,66710.703159179,2059.7027751571,52447,50,160801,15.625,234.22555071188
3251.953125,66787.916080564,2059.6653577579,52541,43,160801,15.625,234.24028467801
3259.765625,66924.945547815,2059.6487738234,52681,37,160801,7.8125,234.24713294775
3267.578125,67048.369271512,2059.6348052874,52774,37,160801,7.8125,234.25334035575
3283.203125,67111.266571517,2059.6167408063,52822,44,160801,15.625,234.26340815615
3291.015625,67241.049798333,2059.6091453469,52955,31,160801,7.8125,234.2680887678
3298.828125,67364.825782109,2059.6035997979,53049,38,160801,7.8125,234.27225918028
3314.453125,67435.438239889,2059.6005974863,53102,49,160801,15.625,234.27865808959
3322.265625,67571.223617004,2059.6000614791,53240,36,160801,7.8125,234.28161569843
3330.078125,67696.47292247,2059.6012164773,53334,38,160801,7.8125,234.28412281093
3337.890625,67816.326399602,2059.6039577758,53425,35,160801,7.8125,234.28622543948
3345.703125,67943.35569473,2059.6082066087,53520,39,160801,7.8125,234.287929701
3353.515625,68064.614612489,2059.6139012475,53612,36,160801,7.8125,234.28925096951
3361.328125,68188.139116114,2059.6209936129,53705,37,160801,7.8125,234.29018407211
3369.140625,68304.003197841,2059.6294473025,53793,32,160801,7.8125,234.29073933604
3384.765625,68373.389992471,2059.6526869093,53845,48,160801,15.625,234.29020395325
3400.390625,68456.521508643,2059.6806321064,53943,48,160801,15.625,234.28836658766
3408.203125,68596.463743731,2059.69505921,54083,38,160801,7.8125,234.2872775393
3416.015625,68712.236524065,2059.710994216,54171,32,160801,7.8125,234.28574013264
3431.640625,68784.261069416,2059.7499743524,54225,50,160801,15.625,234.2807651655
3439.453125,68928.510211116,2059.7699185513,54369,42,160801,7.8125,234.27808656002
3447.265625,69057.965417433,2059.7915445391,54466,41,160801,7.8125,234.27488342893
3455.078125,69183.086769202,2059.8148668667,54561,39,160801,7.8125,234.27115878228
3470.703125,69254.997268488,2059.8700106668,54615,50,160801,15.625,234.26130496052
3478.515625,69440.321968814,2059.8982808665,54893,46,160801,7.8125,234.25607623593
3486.328125,69570.292800094,2059.9287477181,54991,42,160801,7.8125,234.25015854939
3494.140625,69694.957163511,2059.9615033729,55085,38,160801,7.8125,234.24354706236
3501.953125,69820.506553378,2059.9966838341,55179,38,160801,7.8125,234.23620916723
3509.765625,69951.521542481,2060.0344673055,55278,43,160801,7.8125,234.22807848553
3517.578125,70075.013833792,2060.0750748154,55371,37,160801,7.8125,234.21909534478
3533.203125,70145.959072931,2060.1709273571,55425,50,160801,15.625,234.19690576664
3541.015625,70296.823742066,2060.2210720088,55569,48,160801,7.8125,234.18501599618
3556.640625,70363.689728532,2060.341828415,55620,47,160801,15.625,234.15512292412
3564.453125,70510.198498377,2060.4060626139,55760,45,160801,7.8125,234.13885126922
3572.265625,70646.749920097,2060.4769408909,55863,47,160801,7.8125,234.12047700519
3580.078125,70779.163475584,2060.5553544646,55962,43,160801,7.8125,234.09975114172
3587.890625,70899.244284443,2060.6424739889,56053,35,160801,7.8125,234.07628778466
3595.703125,71028.416986722,2060.7398349601,56150,41,160801,7.8125,234.04957258777
3603.515625,71165.090592025,2060.8494475181,56253,47,160801,7.8125,234.0189296249
3611.328125,71300.070853863,2060.9739626884,56354,45,160801,7.8125,233.9834905752
3615.234375,71481.352682534,2061.0402460844,56491,29,160801,3.90625,233.96440773593
3619.140625,71592.429604604,2061.1116134872,56573,28,160801,3.90625,233.94363375075
3623.046875,71701.778012815,2061.1886424321,56655,28,160801,3.90625,233.92098533467
3626.953125,71814.879691385,2061.2719982189,56738,29,160801,3.90625,233.89622150023
3630.859375,71926.660517479,2061.3624673115,56821,29,160801,3.90625,233.86906166919
3634.765625,72038.906674828,2061.460976576,56904,29,160801,3.90625,233.83917098787
3638.671875,72151.677824458,2061.5686104457,56988,30,160801,3.90625,233.80615559777
3642.578125,72263.95795199,2061.6866251504,57071,29,160801,3.90625,233.7695683896
3646.484375,72377.803218612,2061.8164535759,57156,31,160801,3.90625,233.7289078201
3650.390625,72491.981331698,2061.9596886703,57240,30,160801,3.90625,233.68362971069
3654.296875,72605.371663493,2062.1180234636,57324,30,160801,3.90625,233.63320585404
3658.203125,72720.650771774,2062.2931089946,57409,31,160801,3.90625,233.57721406111
3662.109375,72834.646897403,2062.4862670949,57494,31,160801,3.90625,233.51556423193
3666.015625,72951.382200366,2062.6979652016,57580,32,160801,3.90625,233.44885927909
3673.828125,73013.68204091,2063.1871531117,57626,44,160801,7.8125,233.30391836086
3677.734375,73201.540517759,2063.4333285268,57767,33,160801,3.90625,233.24001643502
3681.640625,73313.900695102,2063.6737735718,57851,30,160801,3.90625,233.18635827038
3689.453125,73385.650809855,2064.1183382585,57903,50,160801,7.8125,233.11184660356
3697.265625,73526.327928503,2064.4928783578,58008,50,160801,7.8125,233.04883995608
3705.078125,73652.921590806,2064.8319430571,58102,39,160801,7.8125,232.99526306699
3712.890625,73790.323574164,2065.0753023827,58204,48,160801,7.8125,233.01799276937
3720.703125,73921.95674524,2065.0790737292,58301,43,160801,7.8125,233.14995006612
3728.515625,74045.390354985,2064.8036847478,58393,38,160801,7.8125,233.31248486375
3744.140625,74109.985821053,2063.8377159189,58440,45,160801,15.625,233.58969538359
3751.953125,74302.272318823,2063.3042356175,58600,35,160801,7.8125,233.71394370497
3759.765625,74435.507388726,2062.7815151933,58698,44,160801,7.8125,233.82866089672
3767.578125,74570.305281041,2062.288732935,58798,46,160801,7.8125,233.92983762955
3771.484375,74752.914713563,2062.0533544927,58933,29,160801,3.90625,233.97570737974
3779.296875,74822.275723329,2061.6339267451,58984,49,160801,7.8125,234.05169182649
3787.109375,74959.05165713,2061.260965782,59085,46,160801,7.8125,234.12500846722
3794.921875,75091.24305368,2060.8743296583,59184,44,160801,7.8125,234.23664075686
3810.546875,75153.201466731,2059.7439001361,59229,43,160801,15.625,234.60234834057
3826.171875,75281.244242594,2058.3245412889,59325,41,160801,15.625,234.94384238513
3841.796875,75411.857113377,2056.9566585258,59430,41,160801,15.625,235.25821064981
3857.421875,75546.693124295,2055.7136660448,59531,46,160801,15.625,235.54524461369
3888.671875,75617.436010233,2053.7656960726,59584,49,160801,31.25,235.99920748395
3904.296875,75761.674033266,2052.9193685237,59729,43,160801,15.625,236.19686473092
3919.921875,75895.528092956,2052.1883119205,59835,43,160801,15.625,236.36765854386
3935.546875,76147.019873179,2051.5583167879,60483,46,160801,15.625,236.51476043241
3951.171875,76324.726605723,2051.0162508722,60930,45,160801,15.625,236.64116607428
3966.796875,76399.291986704,2050.5503629759,61017,44,160801,15.625,236.74958325837
3982.421875,76470.628151178,2050.1502902603,61100,41,160801,15.625,236.8424024386
3998.046875,76538.128743479,2049.806965617,61181,39,160801,15.625,236.92173783699
4013.671875,76612.146889668,2049.5124965562,61265,43,160801,15.625,236.98944708828
4029.296875,76713.211395562,2049.2600392149,61511,31,160801,15.625,237.04714840892
4044.921875,76803.859126618,2049.0436760837,61663,42,160801,15.625,237.09623654884
4060.546875,76865.906495375,2048.8583035039,61746,33,160801,15.625,237.13793438424
4076.171875,76924.957557979,2048.6995274381,61826,30,160801,15.625,237.17329155524
4091.796875,76981.449378665,2048.5635705372,61905,29,160801,15.625,237.20320533129
4107.421875,77051.38628763,2048.4471887086,62031,28,160801,15.625,237.22845005018
4123.046875,77110.797967856,2048.3475985837,62118,29,160801,15.625,237.24969401213
4138.671875,77185.785028299,2048.2624135595,62250,31,160801,15.625,237.26751445174
4154.296875,77256.614293453,2048.1895881383,62371,31,160801,15.625,237.28239151811
4169.921875,77326.854429577,2048.127370043,62493,30,160801,15.625,237.2947512866
4185.546875,77401.207271274,2048.0742586871,62638,30,160801,15.625,237.30495044579
4201.171875,77474.255063303,2048.0289693895,62755,34,160801,15.625,237.31329385465
4216.796875,77546.079960387,2047.9904025022,62846,40,160801,15.625,237.32004109212
4232.421875,77610.747455516,2047.9576174313,62931,34,160801,15.625,237.3254198793
4248.046875,77680.845963994,2047.9298095483,63047,33,160801,15.625,237.3296201875
4263.671875,77744.207385051,2047.9062905084,63131,33,160801,15.625,237.332798022
4279.296875,77805.046509416,2047.8864723662,63214,32,160801,15.625,237.33509614188
4294.921875,77865.612293082,2047.869852414,63296,31,160801,15.625,237.33663767283
4310.546875,77925.717523835,2047.8560015042,63378,31,160801,15.625,237.33752089192
4326.171875,77986.287239316,2047.8445529531,63460,31,160801,15.625,237.33783701924
4341.796875,78046.584911269,2047.8351941383,63542,31,160801,15.625,237.3376643137
4357.421875,78105.674054955,2047.827658433,63623,30,160801,15.625,237.33705677354
4373.046875,78162.368931236,2047.8217186773,63703,29,160801,15.625,237.33608118161
4388.671875,78225.950613701,2047.817181991,63787,33,160801,15.625,237.3347651882
4404.296875,78292.349722368,2047.8138846394,63874,36,160801,15.625,237.3331487387
4419.921875,78355.590632396,2047.8116883658,63958,33,160801,15.625,237.33126183527
4435.546875,78422.301413188,2047.8104770632,64045,36,160801,15.625,237.32912147231
4451.171875,78482.95884093,2047.8101534848,64127,31,160801,15.625,237.32674942079
4466.796875,78552.288641586,2047.8106368497,64216,38,160801,15.625,237.32415743184
4482.421875,78629.459969184,2047.8118606511,64310,43,160801,15.625,237.32136561882
4498.046875,78695.878105499,2047.8137708252,64397,36,160801,15.625,237.31838218939
4513.671875,78759.356133021,2047.8163240336,64481,33,160801,15.625,237.31522186111
4529.296875,78828.344257648,2047.8194863358,64570,38,160801,15.625,237.31188980432
4544.921875,78908.314907046,2047.823232625,64666,45,160801,15.625,237.30839544581
4560.546875,78977.348647286,2047.8275457539,64755,38,160801,15.625,237.30472855383
4576.171875,79037.969683645,2047.8324160331,64837,31,160801,15.625,237.30089023509
4591.796875,79100.28682589,2047.8378409809,64921,33,160801,15.625,237.29686702827
4607.421875,79161.501917501,2047.843824918,65003,31,160801,15.625,237.29265431796
4623.046875,79221.9402046,2047.8503785551,65085,31,160801,15.625,237.28823581905
4638.671875,79282.48399713,2047.8575192669,65167,31,160801,15.625,237.2836114605
4654.296875,79344.748701316,2047.8652709248,65251,33,160801,15.625,237.27877832012
4669.921875,79417.140420638,2047.8736637287,65367,34,160801,15.625,237.27371958418
4685.546875,79479.740816467,2047.8827361901,65451,33,160801,15.625,237.26842392334
4701.171875,79551.431288737,2047.8925348877,65563,33,160801,15.625,237.262867731
4716.796875,79636.310471501,2047.9031165267,65721,36,160801,15.625,237.25702824161
4732.421875,79705.456990937,2047.9145485887,65816,35,160801,15.625,237.25087737176
4748.046875,79787.224765688,2047.9269110718,65970,34,160801,15.625,237.24439240591
4763.671875,79868.03790651,2047.9402985489,66104,35,160801,15.625,237.23754407554
4779.296875,79937.839132144,2047.9548236745,66208,34,160801,15.625,237.23028171135
4794.921875,80005.628297029,2047.9706214125,66301,34,160801,15.625,237.22255420737
4810.546875,80073.280106457,2047.9878552344,66395,35,160801,15.625,237.21430295134
4826.171875,80144.565595493,2048.0067239377,66499,34,160801,15.625,237.2054435108
4841.796875,80223.279184706,2048.0274695603,66633,35,160801,15.625,237.19592461262
4857.421875,80302.259660675,2048.0503906258,66741,40,160801,15.625,237.18564109538
4873.046875,80371.784929759,2048.0758621653,66843,34,160801,15.625,237.17444470553
4888.671875,80440.605855755,2048.1043650725,66935,35,160801,15.625,237.16214507788
4904.296875,80512.607854624,2048.1365262109,67031,38,160801,15.625,237.14852240057
4919.921875,80587.148105015,2048.1731769933,67129,39,160801,15.625,237.13332486654
4935.546875,80654.666152631,2048.215447902,67216,37,160801,15.625,237.1161634676
4951.171875,80742.301518281,2048.2649310871,67359,40,160801,15.625,237.09644313497
4966.796875,80820.621511935,2048.3239550776,67464,42,160801,15.625,237.07332315704
4982.421875,80901.990239434,2048.3960716283,67556,48,160801,15.625,237.04557863116
4991.2109375,81019.54782895,2048.4418745092,67649,33,160801,8.7890625,237.02802598461
5000,81077.658751881,2048.4947380716,67691,40,160801,8.7890625,237.00790106532
