time,active_time,area_h,evaluations,iterations,nodes,step_size,von_mises
0,0,2491.7905080814,0,0,0,0,0
31.25,375.003375198,2493.7671700635,253,43,160801,31.25,0.246967188566
39.0625,635.840855145,2493.7611446347,435,24,160801,7.8125,0.25286898289561
54.6875,699.676107361,2493.7398856144,478,41,160801,15.625,0.27317282953232
62.5,888.985140797,2493.7250624477,610,26,160801,7.8125,0.28706891006317
70.3125,1009.304980417,2493.705824712,693,29,160801,7.8125,0.30468595300733
78.125,1130.887828887,2493.6808153438,778,31,160801,7.8125,0.32686487803755
85.9375,1253.598655861,2493.6481770099,863,31,160801,7.8125,0.35467179102542
93.75,1376.548735091,2493.6053473672,949,32,160801,7.8125,0.38949683790728
101.5625,1503.608025057,2493.5487408983,1037,34,160801,7.8125,0.43319769419526
109.375,1635.364612586,2493.4732450634,1129,38,160801,7.8125,0.48839257105296
117.1875,1774.169953775,2493.3713983482,1225,42,160801,7.8125,0.55892350465663
125,1919.133955118,2493.2320006485,1326,47,160801,7.8125,0.65067131395975
128.90625,2120.145980856,2493.1465934364,1466,34,160801,3.90625,0.70499826152079
132.8125,2250.447409132,2493.0459406593,1557,37,160801,3.90625,0.76779148244769
136.71875,2384.517767935,2492.9266650882,1649,38,160801,3.90625,0.84096889897953
140.625,2518.308416592,2492.7844431956,1742,39,160801,3.90625,0.92705390403814
144.53125,2656.210763756,2492.6136800923,1837,41,160801,3.90625,1.0294049296045
148.4375,2795.862931234,2492.4070548735,1934,43,160801,3.90625,1.1525584275775
152.34375,2936.74881612,2492.1548804165,2031,43,160801,3.90625,1.302725009345
156.25,3079.312423665,2491.8441989701,2130,45,160801,3.90625,1.4885231028409
160.15625,3226.008770011,2491.4575070971,2231,47,160801,3.90625,1.7220635489706
162.109375,3422.641236743,2491.2330991647,2369,32,160801,1.953125,1.8589340280123
164.0625,3548.057936628,2490.9812880743,2456,33,160801,1.953125,2.0138967790187
166.015625,3673.732620968,2490.6979735948,2544,34,160801,1.953125,2.1900548537284
167.96875,3802.057446993,2490.37837747,2633,35,160801,1.953125,2.3911166780221
169.921875,3929.2131063,2490.0169411215,2722,35,160801,1.953125,2.6214973706021
171.875,4060.490871132,2489.6072186144,2813,37,160801,1.953125,2.8864510860606
173.828125,4193.466640082,2489.1417708959,2906,39,160801,1.953125,3.1922000608858
175.78125,4327.69789686,2488.6120707551,2999,39,160801,1.953125,3.5460726236562
177.734375,4462.151018174,2488.0084317819,3093,40,160801,1.953125,3.9566272940031
179.6875,4599.259443897,2487.3199780604,3188,41,160801,1.953125,4.4337435267283
181.640625,4736.651425347,2486.5346729284,3284,42,160801,1.953125,4.9886255588845
183.59375,4876.679894689,2485.6394229692,3381,43,160801,1.953125,5.633748778883
185.546875,5018.413215933,2484.6202654185,3480,45,160801,1.953125,6.3826202996398
187.5,5161.381561089,2483.4626325283,3579,45,160801,1.953125,7.2494369295498
189.453125,5307.550477465,2482.1516678676,3681,48,160801,1.953125,8.248544790258
190.4296875,5509.73624253,2481.4407557579,3822,35,160801,0.9765625,8.7968196019035
191.40625,5638.346667704,2480.6867444247,3912,36,160801,0.9765625,9.3825986651908
193.359375,5713.981623445,2479.0266384249,3963,49,160801,1.953125,10.685151682232
194.3359375,5918.594338652,2478.1320603852,4105,36,160801,0.9765625,11.392754423945
195.3125,6048.990776156,2477.1875339552,4194,35,160801,0.9765625,12.143179098624
196.2890625,6178.961326753,2476.1914501983,4284,36,160801,0.9765625,12.937413189284
197.265625,6310.068573906,2475.1422420114,4374,36,160801,0.9765625,13.77631385763
198.2421875,6438.470431857,2474.0383829759,4463,35,160801,0.9765625,14.660593206011
199.21875,6566.789731067,2472.8783859321,4551,34,160801,0.9765625,15.590831203575
200.1953125,6693.216920077,2471.6608013683,4639,34,160801,0.9765625,16.567502018487
201.171875,6822.508826534,2470.3842158237,4728,35,160801,0.9765625,17.590965808367
202.1484375,6947.034142067,2469.0472504654,4815,33,160801,0.9765625,18.661482250231
203.125,7073.343850926,2467.6485599831,4902,33,160801,0.9765625,19.779246469926
204.1015625,7199.298465057,2466.1868320038,4990,34,160801,0.9765625,20.944376781739
206.0546875,7275.199682711,2463.0415796071,5041,49,160801,1.953125,23.438465682752
207.03125,7472.263397391,2461.3820848101,5179,32,160801,0.9765625,24.746814034217
208.984375,7547.439589598,2457.8275669412,5230,49,160801,1.953125,27.528913183221
210.9375,7695.323377789,2453.988161136,5333,49,160801,1.953125,30.502896809045
212.890625,7842.989688783,2449.8558902055,5435,48,160801,1.953125,33.667711026885
214.84375,7987.89672304,2445.4241381472,5536,47,160801,1.953125,37.021719219173
216.796875,8129.623008791,2440.688134537,5634,44,160801,1.953125,40.56235849134
218.75,8273.095870206,2435.6455182335,5734,46,160801,1.953125,44.285676237403
220.703125,8414.866862009,2430.2968889276,5832,44,160801,1.953125,48.185778251886
222.65625,8555.446520058,2424.6462266185,5930,44,160801,1.953125,52.254304260311
224.609375,8697.113690621,2418.7010582837,6028,44,160801,1.953125,56.48008463368
226.5625,8841.965312024,2412.4722908536,6129,47,160801,1.953125,60.848878372218
228.515625,8979.265294271,2405.9737044066,6224,41,160801,1.953125,65.343605802102
230.46875,9128.512137565,2399.2211896581,6328,50,160801,1.953125,69.945138693859
231.4453125,9316.342835687,2395.7771485069,6459,25,160801,0.9765625,72.266377613961
232.421875,9429.060707906,2392.2759937376,6538,25,160801,0.9765625,74.60677806013
233.3984375,9543.701484064,2388.7201152942,6617,25,160801,0.9765625,76.963772335575
234.375,9660.420022637,2385.1117781478,6698,27,160801,0.9765625,79.334946856984
235.3515625,9776.890377541,2381.453184351,6778,26,160801,0.9765625,81.718016503427
236.328125,9890.644051479,2377.7464983901,6857,25,160801,0.9765625,84.110836512124
237.3046875,10008.548478916,2373.9938623324,6938,27,160801,0.9765625,86.511408593715
238.28125,10123.757598115,2370.1974089428,7018,26,160801,0.9765625,88.917882887556
239.2578125,10241.681051526,2366.359275264,7099,27,160801,0.9765625,91.328550091174
240.234375,10360.119883307,2362.4816168225,7181,28,160801,0.9765625,93.741791324105
241.2109375,10479.642369703,2358.5666220242,7263,28,160801,0.9765625,96.15607117807
242.1875,10596.94781368,2354.6165258083,7345,28,160801,0.9765625,98.569912855239
243.1640625,10717.542730817,2350.6336217705,7428,29,160801,0.9765625,100.98187352191
244.140625,10836.319557037,2346.6202720043,7511,29,160801,0.9765625,103.39051690336
245.1171875,10959.845258247,2342.5789141652,7596,31,160801,0.9765625,105.79439640531
246.09375,11083.004820695,2338.5120653759,7682,32,160801,0.9765625,108.19203107299
247.0703125,11210.92621859,2334.4223228303,7770,34,160801,0.9765625,110.58189623319
248.046875,11338.469157644,2330.3123611208,7859,35,160801,0.9765625,112.96241072261
249.0234375,11470.799425535,2326.1849264233,7950,37,160801,0.9765625,115.33194615281
250,11611.559855363,2322.0428276942,8048,44,160801,0.9765625,117.68884053223
250.9765625,11758.905082712,2317.8889253149,8149,47,160801,0.9765625,120.03140800491
251.953125,11906.956626212,2313.7261173736,8251,48,160801,0.9765625,122.35790261772
252.9296875,12056.822563691,2309.55732414,8353,48,160801,0.9765625,124.66657658205
253.90625,12201.966923557,2305.3854711504,8453,46,160801,0.9765625,126.95567704915
254.8828125,12341.52698888,2301.2134715107,8548,41,160801,0.9765625,129.22348275739
255.859375,12477.676806115,2297.0442079238,8642,40,160801,0.9765625,131.46832566027
256.8359375,12611.236839655,2292.8805150476,8733,37,160801,0.9765625,133.68860818952
257.8125,12740.299039639,2288.7251628451,8822,35,160801,0.9765625,135.88283019337
258.7890625,12867.930839008,2284.5808412718,8909,33,160801,0.9765625,138.04959013979
259.765625,12992.260937325,2280.4501468314,8995,32,160801,0.9765625,140.18757926497
261.71875,13070.547014338,2272.2324545276,9047,50,160801,1.953125,144.37336351577
263.671875,13220.795434857,2264.102695813,9151,50,160801,1.953125,148.43041350137
265.625,13368.463905584,2256.0757581669,9252,47,160801,1.953125,152.35359980305
267.578125,13515.76930768,2248.1654478633,9354,48,160801,1.953125,156.13965506976
269.53125,13660.473625476,2240.3839143463,9453,45,160801,1.953125,159.78722103311
271.484375,13801.853145585,2232.7416118201,9551,44,160801,1.953125,163.29638351587
273.4375,13945.058508036,2225.2474581197,9649,44,160801,1.953125,166.66842691826
275.390625,14078.206959922,2217.9090831976,9742,39,160801,1.953125,169.9057070431
279.296875,14150.329896281,2203.8130603613,9791,47,160801,3.90625,175.94710831131
281.25,14358.75874007,2196.9761524142,9937,40,160801,1.953125,178.80553790033
283.203125,14497.459519367,2190.3146268741,10033,42,160801,1.953125,181.54418695121
285.15625,14639.31393572,2183.8356104057,10132,45,160801,1.953125,184.1663727438
287.109375,14786.793853343,2177.5444139625,10234,48,160801,1.953125,186.67554483736
289.0625,14935.996141506,2171.4453715765,10338,50,160801,1.953125,189.07488777988
290.0390625,15141.287449503,2168.4523645698,10481,37,160801,0.9765625,190.24131105695
291.015625,15271.473576889,2165.5079745172,10572,37,160801,0.9765625,191.38117431345
291.9921875,15404.348579645,2162.6130383037,10664,38,160801,0.9765625,192.49468402824
292.96875,15537.45283466,2159.768062275,10757,39,160801,0.9765625,193.58211411341
293.9453125,15670.295600923,2156.9733698285,10849,38,160801,0.9765625,194.64377166075
294.921875,15801.951962813,2154.2291575958,10941,38,160801,0.9765625,195.67996255989
295.8984375,15934.789445232,2151.5355215915,11033,38,160801,0.9765625,196.69100783339
296.875,16066.438785965,2148.8924713111,11125,38,160801,0.9765625,197.67723051869
297.8515625,16203.669598092,2146.2999385512,11220,41,160801,0.9765625,198.63896356879
298.828125,16333.844452275,2143.7577837134,11311,37,160801,0.9765625,199.57655505612
299.8046875,16469.622181088,2141.2658010184,11405,40,160801,0.9765625,200.49036598556
300.78125,16601.271562129,2138.8237231105,11497,38,160801,0.9765625,201.38076495934
301.7578125,16734.118996083,2136.4312254293,11589,38,160801,0.9765625,202.24813412852
302.734375,16864.292419136,2134.087930434,11680,37,160801,0.9765625,203.09286751746
303.7109375,16995.675928935,2131.7934117491,11771,37,160801,0.9765625,203.91536850144
304.6875,17125.86105428,2129.5471982034,11862,37,160801,0.9765625,204.71604780319
305.6640625,17257.232010155,2127.3487777552,11953,37,160801,0.9765625,205.49532414434
306.640625,17387.404523471,2125.1976014122,12044,37,160801,0.9765625,206.25362345624
307.6171875,17518.749754731,2123.093086857,12135,37,160801,0.9765625,206.99137702809
308.59375,17647.466032525,2121.0346220902,12225,36,160801,0.9765625,207.70902166212
309.5703125,17778.825425404,2119.0215688229,12316,37,160801,0.9765625,208.40699473277
310.546875,17907.53020676,2117.0532657342,12406,36,160801,0.9765625,209.08574136124
311.5234375,18038.895261166,2115.1290315076,12497,37,160801,0.9765625,209.74570153184
312.5,18169.059630806,2113.2481676979,12588,37,160801,0.9765625,210.38731987644
313.4765625,18297.688533044,2111.4099613839,12677,35,160801,0.9765625,211.01104013026
314.453125,18425.133872517,2109.6136875847,12766,35,160801,0.9765625,211.61730514645
315.4296875,18552.348494159,2107.8586114878,12854,34,160801,0.9765625,212.20655655252
316.40625,18678.337695231,2106.1439904039,12942,34,160801,0.9765625,212.7792327117
317.3828125,18805.554403682,2104.4690755575,13030,34,160801,0.9765625,213.33576925696
318.359375,18931.529716022,2102.8331136511,13118,34,160801,0.9765625,213.87659793266
319.3359375,19058.74714397,2101.2353482316,13206,34,160801,0.9765625,214.40214745653
320.3125,19184.75775552,2099.6750208783,13294,34,160801,0.9765625,214.91284748353
321.2890625,19311.91382411,2098.1513722405,13382,34,160801,0.9765625,215.409126004
322.265625,19437.696066345,2096.6636429277,13470,34,160801,0.9765625,215.89139232456
323.2421875,19563.277224006,2095.2110742954,13557,33,160801,0.9765625,216.36005160931
324.21875,19690.61769448,2093.7929091321,13646,35,160801,0.9765625,216.81551319384
325.1953125,19816.250646259,2092.4083922974,13733,33,160801,0.9765625,217.25817294781
326.171875,19940.697186089,2091.0567712815,13820,33,160801,0.9765625,217.6884186271
327.1484375,20064.884058011,2089.7372968037,13906,32,160801,0.9765625,218.10663807148
328.125,20187.870474233,2088.4492233806,13992,32,160801,0.9765625,218.51321566147
329.1015625,20312.055851645,2087.191809939,14078,32,160801,0.9765625,218.90853123458
330.078125,20435.044268626,2085.9643204718,14164,32,160801,0.9765625,219.2929550783
331.0546875,20562.127560275,2084.7660247643,14252,34,160801,0.9765625,219.66683889492
332.03125,20686.538551913,2083.5961992026,14339,33,160801,0.9765625,220.03052904761
333.0078125,20810.721469005,2082.4541276585,14425,32,160801,0.9765625,220.38438005792
333.984375,20933.694785165,2081.3391024775,14511,32,160801,0.9765625,220.72873707772
334.9609375,21059.412027944,2080.2504255519,14598,33,160801,0.9765625,221.06392768924
335.9375,21184.521525356,2079.1874094599,14685,33,160801,0.9765625,221.39028124176
336.9140625,21310.926380309,2078.1493787119,14772,33,160801,0.9765625,221.70809300778
337.890625,21435.41696238,2077.135670987,14859,33,160801,0.9765625,222.01764669657
338.8671875,21561.752004921,2076.1456384345,14946,33,160801,0.9765625,222.31922639215
339.84375,21687.717163392,2075.1786489151,15034,34,160801,0.9765625,222.61311006207
340.8203125,21814.018793206,2074.2340872179,15121,33,160801,0.9765625,222.8995631621
341.796875,21937.098390093,2073.3113561487,15207,32,160801,0.9765625,223.17885603331
342.7734375,22063.436986536,2072.4098774717,15294,33,160801,0.9765625,223.45123823526
343.75,22187.945743751,2071.5290926625,15381,33,160801,0.9765625,223.71693972276
344.7265625,22315.716280401,2070.6684633858,15469,34,160801,0.9765625,223.97614285838
345.703125,22440.209063348,2069.8274717314,15556,33,160801,0.9765625,224.22901119192
346.6796875,22568.03307914,2069.0056200998,15644,34,160801,0.9765625,224.47569983463
347.65625,22694.059259204,2068.2024308197,15732,34,160801,0.9765625,224.71635062707
349.609375,22766.97502881,2066.6697895258,15781,47,160801,1.953125,225.17456707734
353.515625,22829.321918205,2063.8717466431,15824,41,160801,3.90625,226.00741168125
357.421875,22974.778210277,2061.3055023657,15924,46,160801,3.90625,226.7656716705
361.328125,23121.237232539,2058.9508688448,16026,48,160801,3.90625,227.45805955601
365.234375,23265.261238446,2056.7894762833,16125,45,160801,3.90625,228.09181464889
369.140625,23407.358880424,2054.8049797814,16224,45,160801,3.90625,228.67041439898
373.046875,23551.304528708,2052.9837200062,16323,45,160801,3.90625,229.19531043568
376.953125,23690.475170888,2051.3146575494,16420,43,160801,3.90625,229.66878858133
380.859375,23824.288440799,2049.7882121914,16512,38,160801,3.90625,230.09548686389
384.765625,23965.209110137,2048.3946058881,16610,44,160801,3.90625,230.48167229616
388.671875,24103.509933416,2047.1225051529,16705,41,160801,3.90625,230.83433177867
392.578125,24244.132108379,2045.958391865,16803,44,160801,3.90625,231.16047445019
396.484375,24378.534264777,2044.886705683,16896,39,160801,3.90625,231.4657297583
400.390625,24501.454252455,2043.8906003257,16982,32,160801,3.90625,231.7537592111
404.296875,24634.368682383,2042.9533315448,17074,38,160801,3.90625,232.02770723669
406.25,24845.849574226,2042.488765811,17222,42,160801,1.953125,232.16381188262
408.203125,24989.259706796,2042.0352848224,17321,45,160801,1.953125,232.29732556977
410.15625,25128.256260404,2041.5918748666,17418,43,160801,1.953125,232.42836385919
412.109375,25275.719822094,2041.1579815888,17520,48,160801,1.953125,232.55638771717
414.0625,25419.034422118,2040.7334287675,17620,46,160801,1.953125,232.68016518916
416.015625,25565.045896412,2040.318288054,17721,47,160801,1.953125,232.79880725142
417.96875,25711.22950975,2039.9127165683,17823,48,160801,1.953125,232.91230764206
419.921875,25861.579959022,2039.5167946185,17927,50,160801,1.953125,233.02115129302
421.875,26004.906430845,2039.1303962673,18027,46,160801,1.953125,233.12606376474
425.78125,26079.935670952,2038.4031641934,18078,49,160801,3.90625,233.32271311637
429.6875,26229.105214619,2037.7029757311,18182,50,160801,3.90625,233.51423473256
431.640625,26444.601414573,2037.351983676,18332,44,160801,1.953125,233.61163194235
433.59375,26586.45156886,2037.0063487171,18431,45,160801,1.953125,233.70856962161
435.546875,26728.042617292,2036.6659635118,18529,44,160801,1.953125,233.8045050297
439.453125,26800.429485744,2036.0195145221,18579,48,160801,3.90625,233.98446083737
441.40625,27021.78304293,2035.6977653391,18733,48,160801,1.953125,234.07046693993
443.359375,27159.302461936,2035.3845748248,18829,42,160801,1.953125,234.15175287333
445.3125,27303.882627405,2035.0809479065,18929,46,160801,1.953125,234.22849597712
447.265625,27447.23486863,2034.7877101908,19029,46,160801,1.953125,234.30109850565
449.21875,27591.803389689,2034.5053829568,19129,46,160801,1.953125,234.37013311541
451.171875,27724.916506009,2034.2340902569,19222,39,160801,1.953125,234.43632880369
453.125,27868.026489817,2033.9734862672,19321,45,160801,1.953125,234.50058106505
455.078125,28008.441585475,2033.7226979785,19419,44,160801,1.953125,234.56397165166
457.03125,28142.880786987,2033.4802852802,19512,39,160801,1.953125,234.62775207189
460.9375,28213.81461329,2033.0281458333,19561,47,160801,3.90625,234.7585198426
464.84375,28355.411801439,2032.5753425999,19659,44,160801,3.90625,234.90849055433
472.65625,28424.872499356,2031.5967842753,19707,46,160801,7.8125,235.2845520897
480.46875,28559.239400951,2030.3068286637,19800,39,160801,7.8125,235.73630419528
488.28125,28698.20640145,2028.7709891136,19897,43,160801,7.8125,236.15796710826
496.09375,28844.195689106,2027.1604299151,19998,47,160801,7.8125,236.53047167916
503.90625,28977.288040669,2025.5961913099,20091,39,160801,7.8125,236.86349494947
511.71875,29108.701297555,2024.1520979019,20182,37,160801,7.8125,237.15698670237
519.53125,29241.802639275,2022.8815465162,20275,39,160801,7.8125,237.40594942382
527.34375,29367.33823142,2021.8128241357,20362,33,160801,7.8125,237.61092909955
535.15625,29493.353914562,2020.9264110524,20451,34,160801,7.8125,237.79127673799
542.96875,29633.508702314,2020.1389654109,20548,43,160801,7.8125,237.98661609143
558.59375,29707.393561507,2018.6824193436,20599,49,160801,15.625,238.39084731962
566.40625,29931.790334367,2017.9375592205,20761,49,160801,7.8125,238.560736521
574.21875,30070.749853566,2017.2623013891,20858,43,160801,7.8125,238.70723625212
582.03125,30215.396105489,2016.6569294282,20958,46,160801,7.8125,238.83571437584
589.84375,30360.224348892,2016.1201638849,21059,47,160801,7.8125,238.94816100722
593.75,30581.878623825,2015.8679116822,21214,48,160801,3.90625,239.00070287307
601.5625,30646.995483358,2015.4383340618,21259,43,160801,7.8125,239.08892882827
609.375,30786.202579388,2015.0830335666,21356,42,160801,7.8125,239.16049988914
617.1875,30924.056386701,2014.8027004325,21453,42,160801,7.8125,239.21497542019
625,31064.672244521,2014.5962289833,21552,43,160801,7.8125,239.25219814552
632.8125,31193.825934893,2014.4618492223,21644,36,160801,7.8125,239.27209192885
640.625,31334.467099474,2014.398592486,21743,43,160801,7.8125,239.27431508923
648.4375,31466.553237655,2014.4076361786,21837,38,160801,7.8125,239.25796542153
656.25,31602.762729163,2014.4931280679,21933,40,160801,7.8125,239.22159204014
660.15625,31802.876043668,2014.5568372895,22075,34,160801,3.90625,239.19809795054
667.96875,31866.242068798,2014.7693905522,22118,41,160801,7.8125,239.13054366131
671.875,32072.157930558,2014.8965478689,22264,38,160801,3.90625,239.09405252903
673.828125,32268.640414708,2014.9644328184,22401,31,160801,1.953125,239.07594488872
677.734375,32322.00990872,2015.1175793786,22438,35,160801,3.90625,239.03906524907
685.546875,32395.618585517,2015.4587811303,22488,48,160801,7.8125,238.98134946279
693.359375,32533.285019563,2015.7433708129,22585,42,160801,7.8125,238.97440814843
701.171875,32676.564549877,2015.9211439071,22685,45,160801,7.8125,238.99524524503
705.078125,32889.558358023,2015.9524471129,22835,43,160801,3.90625,239.0180025956
712.890625,32964.608172973,2015.8885488408,22886,49,160801,7.8125,239.09855951864
716.796875,33183.292506038,2015.7819228038,23039,47,160801,3.90625,239.14210997626
724.609375,33259.812642395,2015.4709338513,23091,50,160801,7.8125,239.22465764112
732.421875,33407.534843393,2015.0277305991,23194,49,160801,7.8125,239.34325135758
740.234375,33552.085529363,2014.4061034915,23294,46,160801,7.8125,239.52664583444
748.046875,33699.831850142,2013.6374308547,23397,49,160801,7.8125,239.71420560854
750,33984.837387226,2013.4303779459,23596,41,160801,1.953125,239.75870185138
753.90625,34060.155894488,2013.0154485862,23648,50,160801,3.90625,239.84350852962
757.8125,34206.180939014,2012.6038556407,23749,47,160801,3.90625,239.9237729632
761.71875,34340.737773533,2012.2023510864,23843,40,160801,3.90625,239.99951166756
765.625,34466.284244543,2011.815591087,23930,33,160801,3.90625,240.07053537484
769.53125,34613.989324587,2011.4468631304,24033,49,160801,3.90625,240.13652243002
773.4375,34761.477261569,2011.0986660447,24135,48,160801,3.90625,240.1970760832
777.34375,34897.702551354,2010.7730972346,24230,41,160801,3.90625,240.25174286283
781.25,35027.879815961,2010.4720538544,24320,36,160801,3.90625,240.30001375227
785.15625,35161.205596138,2010.1972890971,24413,39,160801,3.90625,240.34134773783
789.0625,35295.741215431,2009.950384227,24506,39,160801,3.90625,240.37518745284
792.96875,35434.900817844,2009.7326908986,24603,43,160801,3.90625,240.40099174093
796.875,35569.445999034,2009.5452725041,24696,39,160801,3.90625,240.4182700192
800.78125,35692.439783355,2009.3888407535,24782,32,160801,3.90625,240.42663978552
804.6875,35820.913233139,2009.2636543774,24871,35,160801,3.90625,240.42593056829
808.59375,35945.265301039,2009.1693222118,24958,33,160801,3.90625,240.41637524666
812.5,36078.127559314,2009.1044370753,25050,38,160801,3.90625,240.39891263566
816.40625,36211.254034823,2009.0659775899,25143,39,160801,3.90625,240.37558503379
820.3125,36336.796213816,2009.0485196218,25230,33,160801,3.90625,240.34990645524
824.21875,36483.086743632,2009.0436035507,25332,48,160801,3.90625,240.32684437393
828.125,36613.022112664,2009.0400856353,25422,36,160801,3.90625,240.31198596245
832.03125,36741.78964614,2009.0263351938,25512,36,160801,3.90625,240.31011425077
835.9375,36864.432027579,2008.9936576378,25597,31,160801,3.90625,240.32383735216
839.84375,36978.52288565,2008.9381710595,25677,26,160801,3.90625,240.34445873556
843.75,37090.908078038,2008.8590136684,25755,24,160801,3.90625,240.36755066749
847.65625,37219.635116322,2008.7543679701,25845,36,160801,3.90625,240.39794062783
851.5625,37365.661300809,2008.6188860847,25946,47,160801,3.90625,240.44289490188
855.46875,37481.22421967,2008.4450967207,26027,27,160801,3.90625,240.50739452672
859.375,37605.31203965,2008.2283442967,26113,32,160801,3.90625,240.58782641842
863.28125,37729.645120977,2007.971120542,26200,33,160801,3.90625,240.67504257836
867.1875,37856.61474941,2007.6828268259,26288,34,160801,3.90625,240.76180262808
871.09375,37982.358720806,2007.3760053339,26376,34,160801,3.90625,240.84508705569
875,38115.217528977,2007.0627730174,26468,38,160801,3.90625,240.92429684652
878.90625,38251.247626871,2006.7531809977,26563,41,160801,3.90625,240.99939172365
882.8125,38381.21198839,2006.4549745957,26653,36,160801,3.90625,241.07027157824
886.71875,38507.183868166,2006.1738312369,26741,34,160801,3.90625,241.1367815313
890.625,38646.622986577,2005.9136078857,26837,42,160801,3.90625,241.19889411075
894.53125,38775.444519693,2005.6764846066,26927,36,160801,3.90625,241.25690814621
902.34375,38838.137116662,2005.29910454,26969,40,160801,7.8125,241.35965883553
910.15625,38975.967956198,2004.9857348008,27066,42,160801,7.8125,241.46866930201
917.96875,39112.659223565,2004.662949691,27161,40,160801,7.8125,241.61019099402
925.78125,39256.143253727,2004.2568872406,27261,46,160801,7.8125,241.7723505115
941.40625,39331.909279112,2003.2690285554,27312,49,160801,15.625,242.0402488323
957.03125,39475.977799749,2002.2674252461,27414,46,160801,15.625,242.26555356635
972.65625,39620.873429518,2001.407215342,27518,45,160801,15.625,242.45729621004
988.28125,39767.678095159,2000.7398981979,27622,48,160801,15.625,242.60728064883
1003.90625,39922.947601174,2000.2559430219,27745,50,160801,15.625,242.71727898733
1019.53125,40011.245461436,1999.9199768876,27838,50,160801,15.625,242.79487638016
1035.15625,40115.641161644,1999.6951986921,27985,48,160801,15.625,242.84812380327
1050.78125,40278.144611887,1999.5514620738,28349,50,160801,15.625,242.88361067407
1066.40625,40366.797113694,1999.4663113494,28447,47,160801,15.625,242.90620785402
1074.21875,40508.313374359,1999.4348861382,28583,34,160801,7.8125,242.91505146485
1082.03125,40651.067047161,1999.414325241,28683,44,160801,7.8125,242.92142949112
1089.84375,40793.53131159,1999.4029600438,28784,45,160801,7.8125,242.92572392664
1105.46875,40864.010075853,1999.4100209658,28833,45,160801,15.625,242.92745127364
1121.09375,40949.63142354,1999.4389533964,28931,46,160801,15.625,242.92391980778
1128.90625,41107.560364688,1999.4573044004,29105,38,160801,7.8125,242.92113260946
1136.71875,41251.490882024,1999.4813805365,29207,46,160801,7.8125,242.91678971831
1144.53125,41395.816407798,1999.5110700567,29308,45,160801,7.8125,242.91089842772
1152.34375,41533.925673719,1999.5464719983,29406,42,160801,7.8125,242.9033778258
1160.15625,41685.573812436,1999.5879078386,29512,50,160801,7.8125,242.89407908955
1167.96875,41833.947545605,1999.6359445802,29617,49,160801,7.8125,242.88277398058
1171.875,42040.532017056,1999.6612841706,29762,37,160801,3.90625,242.87666654571
1175.78125,42176.76596514,1999.6886995301,29857,41,160801,3.90625,242.86988634278
1179.6875,42313.357952348,1999.71832513,29951,40,160801,3.90625,242.86239201708
1183.59375,42448.115293445,1999.7503198263,30045,40,160801,3.90625,242.85412735507
1187.5,42589.090007804,1999.7848758091,30142,43,160801,3.90625,242.84501692379
1191.40625,42728.216317864,1999.8222244666,30239,43,160801,3.90625,242.83497264119
1195.3125,42870.613093694,1999.8626424587,30337,44,160801,3.90625,242.82388985071
1203.125,42944.590958309,1999.9582858089,30388,49,160801,7.8125,242.79685730513
1207.03125,43159.911157811,2000.0098269559,30539,43,160801,3.90625,242.78194129643
1210.9375,43299.014960647,2000.0662380644,30636,43,160801,3.90625,242.7652876296
1218.75,43376.282114965,2000.2024406509,30688,50,160801,7.8125,242.72390650139
1222.65625,43597.12434856,2000.2773880858,30844,48,160801,3.90625,242.70057030228
1226.5625,43736.597918062,2000.3605355224,30940,42,160801,3.90625,242.67420452378
1230.46875,43877.187221496,2000.452963172,31038,44,160801,3.90625,242.64443175757
1234.375,44018.112870385,2000.5558066311,31135,43,160801,3.90625,242.61086743119
1238.28125,44158.685208918,2000.6701659774,31233,44,160801,3.90625,242.57320234859
1242.1875,44301.221920384,2000.7969024146,31331,44,160801,3.90625,242.53135041522
1246.09375,44447.824739136,2000.9362624723,31433,48,160801,3.90625,242.48571482273
1248.046875,44656.924704317,2001.0087789864,31578,39,160801,1.953125,242.46236698167
1250,44779.99045845,2001.083970301,31664,32,160801,1.953125,242.4385955432
1251.953125,44920.979994915,2001.1613767599,31761,43,160801,1.953125,242.41477359323
1255.859375,44995.03482401,2001.3233215216,31812,49,160801,3.90625,242.36793103859
1257.8125,45214.292669314,2001.402387507,31964,46,160801,1.953125,242.34712667164
1261.71875,45283.916800432,2001.5571391294,32012,46,160801,3.90625,242.31186984106
1263.671875,45498.836564844,2001.6266038604,32161,43,160801,1.953125,242.29938509925
1267.578125,45572.821773489,2001.7497595148,32212,49,160801,3.90625,242.28473483154
1271.484375,45724.028894558,2001.8431916941,32316,50,160801,3.90625,242.28418546133
1275.390625,45866.09490404,2001.9083038688,32415,45,160801,3.90625,242.28953717734
1279.296875,46015.934775712,2001.9515197992,32518,49,160801,3.90625,242.2919377347
1283.203125,46156.699644387,2001.979769104,32616,44,160801,3.90625,242.29112219095
1287.109375,46293.424893167,2001.9968170979,32710,40,160801,3.90625,242.29047936246
1291.015625,46423.981405525,2002.0013716304,32801,37,160801,3.90625,242.29508066279
1298.828125,46488.177225337,2001.946703032,32844,41,160801,7.8125,242.34284193548
1306.640625,46634.84060733,2001.7406951344,32946,48,160801,7.8125,242.44522435057
1314.453125,46784.617745402,2001.3941655505,33049,49,160801,7.8125,242.55097524001
1318.359375,46992.009004026,2001.1898888122,33194,39,160801,3.90625,242.59962818352
1322.265625,47131.666892661,2000.9768539783,33290,42,160801,3.90625,242.64568476452
1326.171875,47269.39106814,2000.7611503693,33386,42,160801,3.90625,242.68929723464
1330.078125,47417.6646001,2000.5474710474,33488,48,160801,3.90625,242.73031977417
1333.984375,47561.234796281,2000.3395916389,33588,46,160801,3.90625,242.76838721981
1341.796875,47638.534322531,1999.9680813886,33640,50,160801,7.8125,242.82989220291
1345.703125,47856.299779627,1999.7963758495,33793,46,160801,3.90625,242.8561410002
1349.609375,48001.742036645,1999.6412344626,33893,46,160801,3.90625,242.87799575639
1353.515625,48142.561394804,1999.5034102078,33991,44,160801,3.90625,242.8963119351
1357.421875,48287.986519913,1999.3813945313,34091,46,160801,3.90625,242.91326662591
1365.234375,48357.597232709,1999.1792290092,34139,46,160801,7.8125,242.95643220053
1369.140625,48566.980128328,1999.0543604414,34285,39,160801,3.90625,242.9980734552
1376.953125,48642.517252009,1998.739352612,34337,50,160801,7.8125,243.12079616894
1384.765625,48790.80324866,1998.3193887495,34439,48,160801,7.8125,243.24603473994
1386.71875,49064.800294811,1998.202312033,34631,34,160801,1.953125,243.27439282554
1388.671875,49186.855174826,1998.0844340895,34715,30,160801,1.953125,243.30137936043
1392.578125,49255.067644846,1997.8513846062,34762,45,160801,3.90625,243.35122154444
1394.53125,49446.528152411,1997.7346562498,34895,27,160801,1.953125,243.37499356691
1396.484375,49572.509974508,1997.6192088006,34983,34,160801,1.953125,243.39786390806
1400.390625,49645.407210606,1997.3957639636,35032,47,160801,3.90625,243.44044106579
1402.34375,49841.024930423,1997.2855960112,35169,31,160801,1.953125,243.46091574775
1406.25,49915.387249378,1997.0748443632,35219,48,160801,3.90625,243.49870150881
1414.0625,49989.355053763,1996.7010140577,35270,49,160801,7.8125,243.5602217035
1416.015625,50259.288430046,1996.610657349,35459,30,160801,1.953125,243.57454824641
1417.96875,50376.471659097,1996.5240788224,35541,28,160801,1.953125,243.58774910214
1421.875,50446.448561507,1996.3677173338,35588,45,160801,3.90625,243.60950405844
1425.78125,50595.892760672,1996.2299737444,35692,50,160801,3.90625,243.62631394649
1427.734375,50796.395598234,1996.1659983986,35831,33,160801,1.953125,243.63352551097
1429.6875,50919.56228117,1996.1070607314,35917,32,160801,1.953125,243.63956382509
1431.640625,51035.803336599,1996.053167806,35997,26,160801,1.953125,243.64455574256
1435.546875,51109.870640579,1995.9653565575,36048,49,160801,3.90625,243.65088257888
1439.453125,51258.161969973,1995.8939161264,36150,48,160801,3.90625,243.65660925507
1443.359375,51404.604837742,1995.8319866331,36252,48,160801,3.90625,243.66598953025
1447.265625,51554.402835284,1995.7687982604,36355,49,160801,3.90625,243.68420708357
1455.078125,51629.872918373,1995.6026596456,36407,50,160801,7.8125,243.76093268715
1462.890625,51779.762622624,1995.3221002671,36510,49,160801,7.8125,243.87845792727
1470.703125,51918.904708802,1994.9697202496,36607,43,160801,7.8125,243.97846710317
1478.515625,52059.897019963,1994.5979474873,36704,43,160801,7.8125,244.06468847256
1486.328125,52200.526723738,1994.2313887484,36802,44,160801,7.8125,244.14381290866
1494.140625,52343.206851223,1993.8802185797,36899,43,160801,7.8125,244.21775510586
1501.953125,52488.93455907,1993.5520564913,37000,47,160801,7.8125,244.28600477095
1509.765625,52633.159898754,1993.2552760954,37100,45,160801,7.8125,244.34699733999
1517.578125,52774.66701394,1992.9984651199,37199,44,160801,7.8125,244.39879744321
1521.484375,52977.270834651,1992.8810947336,37341,34,160801,3.90625,244.42216099597
1529.296875,53045.694088154,1992.6988492818,37388,45,160801,7.8125,244.45647566831
1537.109375,53197.494188631,1992.5741068741,37494,50,160801,7.8125,244.47714072141
1541.015625,53396.442017038,1992.5273985234,37635,33,160801,3.90625,244.48385138446
1544.921875,53523.525603017,1992.4969523715,37723,34,160801,3.90625,244.48682297088
1548.828125,53652.318566738,1992.4828927318,37813,36,160801,3.90625,244.48631781358
1552.734375,53780.847528617,1992.4848156448,37902,35,160801,3.90625,244.48294752282
1556.640625,53909.667387265,1992.501396159,37992,36,160801,3.90625,244.47790632915
1560.546875,54035.303107389,1992.5298048749,38079,33,160801,3.90625,244.4732380626
1564.453125,54158.285443443,1992.5650066912,38165,32,160801,3.90625,244.47197658363
1568.359375,54280.989799219,1992.5992916579,38250,31,160801,3.90625,244.47794699317
1572.265625,54402.489699069,1992.6227812823,38335,31,160801,3.90625,244.49504257469
1576.171875,54525.168990129,1992.6256143947,38420,31,160801,3.90625,244.52564046136
1583.984375,54594.672741497,1992.5531722581,38468,46,160801,7.8125,244.61206631115
1591.796875,54730.5535809,1992.3793323415,38562,40,160801,7.8125,244.69471970847
1599.609375,54878.379623515,1992.1514896862,38665,49,160801,7.8125,244.7667045847
1603.515625,55079.355131544,1992.0275083058,38805,34,160801,3.90625,244.80094610649
1611.328125,55138.628881526,1991.7733993226,38846,39,160801,7.8125,244.86752765846
1615.234375,55341.034949998,1991.6435477087,38987,35,160801,3.90625,244.90077577183
1619.140625,55465.421510408,1991.5135940137,39074,33,160801,3.90625,244.93381065831
1623.046875,55593.924793572,1991.384368727,39163,35,160801,3.90625,244.96657104191
1626.953125,55719.759388192,1991.2568422352,39251,34,160801,3.90625,244.9989023269
1634.765625,55783.139114809,1991.0182782381,39294,41,160801,7.8125,245.05988367421
1642.578125,55917.979405643,1990.8020711952,39389,40,160801,7.8125,245.11596044599
1650.390625,56064.245603311,1990.6157177595,39491,47,160801,7.8125,245.165342889
1658.203125,56203.674095267,1990.4653604968,39590,43,160801,7.8125,245.2064975283
1666.015625,56347.214556254,1990.3560698152,39691,45,160801,7.8125,245.2380993352
1673.828125,56492.494543754,1990.2925202787,39794,47,160801,7.8125,245.25881541556
1677.734375,56698.253979962,1990.2726800251,39939,37,160801,3.90625,245.26620858149
1685.546875,56772.136239997,1990.2885900294,39990,49,160801,7.8125,245.26714328812
1693.359375,56920.102792486,1990.3662855666,40094,48,160801,7.8125,245.25208817257
1701.171875,57058.067969334,1990.516959555,40192,42,160801,7.8125,245.21740539822
1708.984375,57203.06665437,1990.7553355257,40294,46,160801,7.8125,245.15861055379
1716.796875,57351.257156183,1991.0965206376,40399,49,160801,7.8125,245.07256622928
1720.703125,57557.261578208,1991.294523859,40544,37,160801,3.90625,245.02380352055
1724.609375,57687.273166968,1991.5164057937,40634,36,160801,3.90625,244.97155670164
1728.515625,57818.449518061,1991.7551905904,40724,36,160801,3.90625,244.91994883503
1732.421875,57952.788731629,1991.999514253,40817,39,160801,3.90625,244.87437801672
1740.234375,58030.002810572,1992.4718989548,40869,50,160801,7.8125,244.8141943438
1748.046875,58174.905592703,1992.8065202125,40970,46,160801,7.8125,244.80408726757
1755.859375,58317.791785849,1992.902379611,41068,44,160801,7.8125,244.88355090055
1763.671875,58462.303145611,1992.6811695056,41168,46,160801,7.8125,245.05161563476
1767.578125,58679.731983032,1992.4690804258,41321,45,160801,3.90625,245.13792169586
1771.484375,58820.175125926,1992.2142694418,41419,44,160801,3.90625,245.21763491962
1779.296875,58896.703327956,1991.6339670968,41471,50,160801,7.8125,245.36126653225
1783.203125,59100.740592107,1991.3218978727,41614,37,160801,3.90625,245.43284327879
1791.015625,59175.781189242,1990.6596549675,41665,49,160801,7.8125,245.59722437152
1798.828125,59323.486352783,1989.8852354227,41768,49,160801,7.8125,245.82316720824
1800.78125,59590.065044795,1989.6644913918,41954,28,160801,1.953125,245.88763628871
1804.6875,59656.684409484,1989.1985886046,42000,44,160801,3.90625,246.01784674453
1808.59375,59782.91429129,1988.7063220036,42087,33,160801,3.90625,246.14520576339
1812.5,59908.77815661,1988.1997171555,42175,34,160801,3.90625,246.26807544645
1820.3125,59984.551407796,1987.1989560428,42226,49,160801,7.8125,246.49765792486
1828.125,60125.041670648,1986.2371653986,42324,44,160801,7.8125,246.71120521206
1835.9375,60255.682369923,1985.3369157133,42414,36,160801,7.8125,246.90941659269
1843.75,60391.801725097,1984.5078968467,42509,41,160801,7.8125,247.0919206119
1851.5625,60542.920277433,1983.7541955684,42613,50,160801,7.8125,247.25835725111
1859.375,60678.083067924,1983.0762932394,42707,40,160801,7.8125,247.408765042
1867.1875,60812.975668642,1982.4718864936,42799,38,160801,7.8125,247.54362714569
1875,60953.555737447,1981.9367034146,42897,43,160801,7.8125,247.66377258685
1882.8125,61092.99174302,1981.4652642552,42993,41,160801,7.8125,247.77024899131
1890.625,61227.635533323,1981.0514511697,43087,39,160801,7.8125,247.86421400651
1894.53125,61450.313344311,1980.8575604769,43241,47,160801,3.90625,247.90830113922
1902.34375,61513.104533646,1980.5191410472,43284,41,160801,7.8125,247.98548314664
1910.15625,61651.875555285,1980.222206518,43380,41,160801,7.8125,248.05304249563
1917.96875,61788.336176219,1979.9604130355,43477,41,160801,7.8125,248.11196178455
1925.78125,61930.986817264,1979.7274097891,43577,44,160801,7.8125,248.16310296305
1933.59375,62079.145667593,1979.5167182173,43682,49,160801,7.8125,248.20717718889
1937.5,62299.549662069,1979.414546317,43837,47,160801,3.90625,248.22756630981
1941.40625,62445.503136885,1979.3160405667,43939,48,160801,3.90625,248.2462591175
1945.3125,62594.776315798,1979.2202228558,44042,49,160801,3.90625,248.26331717457
1949.21875,62736.384712705,1979.1260938638,44141,45,160801,3.90625,248.27877525882
1953.125,62885.649247866,1979.0326279277,44244,49,160801,3.90625,248.2926529441
1957.03125,63025.808299497,1978.938787109,44342,44,160801,3.90625,248.30495766984
1960.9375,63176.58016876,1978.8435557528,44445,49,160801,3.90625,248.31569379938
1964.84375,63319.755862115,1978.7460044473,44544,45,160801,3.90625,248.3248647976
1968.75,63466.291490384,1978.6453914479,44644,46,160801,3.90625,248.3325060731
1972.65625,63610.971649836,1978.5413045098,44744,46,160801,3.90625,248.33871471607
1976.5625,63761.865564312,1978.4338286606,44847,49,160801,3.90625,248.34369129168
1980.46875,63911.023703661,1978.323699204,44950,49,160801,3.90625,248.3477938091
1982.421875,64119.323023097,1978.2679417846,45094,38,160801,1.953125,248.3498480187
1984.375,64253.989531552,1978.2121746953,45188,40,160801,1.953125,248.35188867587
1986.328125,64394.184674423,1978.156661042,45285,43,160801,1.953125,248.35401412404
1990.234375,64468.063318593,1978.0477461006,45336,49,160801,3.90625,248.35864895058
1992.1875,64681.120344908,1977.994703335,45484,42,160801,1.953125,248.36165595469
1996.09375,64755.111027034,1977.8934841361,45535,49,160801,3.90625,248.36889270328
2000,64901.463574468,1977.799991217,45636,47,160801,3.90625,248.37846070986
2001.953125,65114.757961584,1977.7563930811,45785,43,160801,1.953125,248.38423681891
2003.90625,65253.731545863,1977.71520362,45881,42,160801,1.953125,248.3905561606
2005.859375,65393.005637267,1977.6764850326,45978,43,160801,1.953125,248.39738174935
2009.765625,65466.795168875,1977.6071047136,46028,48,160801,3.90625,248.41220480326
2017.578125,65539.393063506,1977.4995638047,46078,48,160801,7.8125,248.4453691049
2021.484375,65752.05817697,1977.457385498,46227,41,160801,3.90625,248.46341509869
2029.296875,65826.789804607,1977.3985081884,46278,49,160801,7.8125,248.50041883227
2033.203125,66052.418843647,1977.3767439148,46435,49,160801,3.90625,248.51966295022
2037.109375,66201.847095181,1977.3605634445,46538,49,160801,3.90625,248.53914487404
2041.015625,66343.579914379,1977.3495278708,46635,43,160801,3.90625,248.55885547663
2044.921875,66485.496548035,1977.3433450128,46733,44,160801,3.90625,248.57877080259
2048.828125,66631.434417918,1977.3418815957,46833,46,160801,3.90625,248.59885148956
2052.734375,66764.380600255,1977.3451571026,46925,38,160801,3.90625,248.61903846688
2056.640625,66899.202633679,1977.3533365513,47017,38,160801,3.90625,248.63925007672
2060.546875,67035.298825036,1977.3667272821,47111,40,160801,3.90625,248.65937998735
2064.453125,67184.385743689,1977.3857814236,47213,48,160801,3.90625,248.67929619853
2068.359375,67332.397931532,1977.4111034241,47315,48,160801,3.90625,248.6988386607
2072.265625,67469.701946082,1977.4434600881,47409,40,160801,3.90625,248.7178259104
2076.171875,67602.806842143,1977.483787088,47501,38,160801,3.90625,248.73606320854
2080.078125,67738.59621288,1977.5331807611,47594,39,160801,3.90625,248.75336700688
2083.984375,67871.755260417,1977.5928524833,47686,38,160801,3.90625,248.76959452431
2087.890625,68003.146250066,1977.6640032419,47776,36,160801,3.90625,248.78471579093
2091.796875,68137.409913772,1977.7475388104,47869,39,160801,3.90625,248.79898661139
2095.703125,68265.516605988,1977.8434886744,47957,34,160801,3.90625,248.81332352689
2099.609375,68395.347332959,1977.9499300695,48047,36,160801,3.90625,248.82979917069
2107.421875,68470.978405392,1978.1763889437,48098,49,160801,7.8125,248.88610084371
2115.234375,68613.063472883,1978.2998385649,48198,45,160801,7.8125,248.99670415961
2123.046875,68742.959800245,1978.2307866369,48288,36,160801,7.8125,249.12135782496
2130.859375,68874.554264812,1978.0281447759,48380,38,160801,7.8125,249.23125720852
2138.671875,69007.407797218,1977.773955224,48472,38,160801,7.8125,249.33476373834
2146.484375,69140.512394943,1977.5089184821,48565,39,160801,7.8125,249.43696712262
2154.296875,69274.798553563,1977.2568284123,48658,39,160801,7.8125,249.5373902715
2162.109375,69405.198004065,1977.0400237809,48750,37,160801,7.8125,249.63364240701
2169.921875,69530.929897018,1976.8803596615,48838,33,160801,7.8125,249.72345525485
2177.734375,69662.990444435,1976.7955110123,48932,38,160801,7.8125,249.80786529929
2181.640625,69859.861286621,1976.77361924,49071,31,160801,3.90625,249.85176208959
2189.453125,69933.687200679,1976.8023230668,49122,49,160801,7.8125,249.94949798739
2197.265625,70084.21985935,1976.8430246655,49227,50,160801,7.8125,250.08118355042
2205.078125,70211.624123659,1976.7907295391,49317,35,160801,7.8125,250.21941316927
2212.890625,70353.608236665,1976.6177459471,49417,44,160801,7.8125,250.32798374109
2220.703125,70486.703471707,1976.39257568,49510,39,160801,7.8125,250.40820443175
2228.515625,70628.339493491,1976.1751680454,49608,44,160801,7.8125,250.46917513813
2236.328125,70767.521315954,1975.9936814728,49706,43,160801,7.8125,250.51515557702
2244.140625,70906.391938148,1975.8498214767,49803,42,160801,7.8125,250.5564309245
2251.953125,71041.247805183,1975.6939310421,49898,40,160801,7.8125,250.62648090375
2267.578125,71098.78049887,1975.0055046521,49937,37,160801,15.625,250.92135779951
2283.203125,71245.598230593,1973.9712052497,50047,47,160801,15.625,251.18919672641
2298.828125,71395.093639465,1972.9778001437,50158,48,160801,15.625,251.42948308524
2314.453125,71542.7438517,1972.124526095,50272,47,160801,15.625,251.64064399715
2330.078125,71717.379273763,1971.4483402678,50659,49,160801,15.625,251.81584972834
2345.703125,71799.205206085,1970.9479518459,50746,46,160801,15.625,251.95475933223
2353.515625,71961.221256673,1970.7379530321,50937,37,160801,7.8125,252.01575693884
2361.328125,72087.432903306,1970.5673721034,51027,34,160801,7.8125,252.06837840815
2369.140625,72219.422598,1970.432042516,51120,37,160801,7.8125,252.11348948337
2376.953125,72353.110521765,1970.3280401641,51215,39,160801,7.8125,252.15184348762
2392.578125,72421.407616714,1970.2232542953,51263,44,160801,15.625,252.2058264029
2408.203125,72496.665830468,1970.2038047174,51348,41,160801,15.625,252.2399629373
2423.828125,72565.832163195,1970.2710461883,51428,36,160801,15.625,252.25225672823
2439.453125,72659.337529581,1970.4466209529,51568,43,160801,15.625,252.23484466869
2447.265625,72798.139392632,1970.571866321,51692,34,160801,7.8125,252.21492015857
2455.078125,72928.657945924,1970.7471878017,51784,36,160801,7.8125,252.18024973408
2462.890625,73070.034103376,1970.986684842,51882,42,160801,7.8125,252.12690055376
2470.703125,73212.406562744,1971.3062249282,51982,44,160801,7.8125,252.05178731507
2474.609375,73408.573355093,1971.4890588567,52119,29,160801,3.90625,252.00966247142
2482.421875,73472.931162793,1971.9232251256,52163,42,160801,7.8125,251.92248955031
2490.234375,73608.89252252,1972.322129266,52257,39,160801,7.8125,251.89819358083
2498.046875,73739.379927611,1972.4752147863,52348,37,160801,7.8125,251.99427030833
2505.859375,73874.602453057,1972.2927594924,52441,39,160801,7.8125,252.13427365678
2513.671875,74006.512106153,1971.8918284754,52533,38,160801,7.8125,252.25857086756
2529.296875,74080.922114076,1970.8401285407,52583,48,160801,15.625,252.49538715977
2544.921875,74224.976570694,1969.7441185239,52685,46,160801,15.625,252.72896417216
2560.546875,74374.812610356,1968.7304869823,52795,47,160801,15.625,252.94644843318
2576.171875,74527.373726845,1967.8618059065,52924,47,160801,15.625,253.13583972437
2583.984375,74678.163205891,1967.4672919975,53059,40,160801,7.8125,253.22271315549
2591.796875,74814.297314674,1967.1165306933,53154,40,160801,7.8125,253.30079829639
2599.609375,74949.302046426,1966.8086837444,53247,38,160801,7.8125,253.37022044761
2607.421875,75093.011788382,1966.5417681284,53348,45,160801,7.8125,253.43133291235
2615.234375,75235.553024362,1966.3132342623,53447,43,160801,7.8125,253.48462510257
2623.046875,75377.730105282,1966.1203982545,53547,44,160801,7.8125,253.53064110445
2630.859375,75516.453020557,1965.9607522225,53644,41,160801,7.8125,253.56988653075
2634.765625,75722.661793641,1965.8884879337,53790,38,160801,3.90625,253.58799191281
2638.671875,75860.753001965,1965.8242266752,53885,41,160801,3.90625,253.60442506702
2642.578125,76001.375843309,1965.7677324226,53983,44,160801,3.90625,253.61923327788
2646.484375,76137.979462053,1965.7188229606,54077,40,160801,3.90625,253.63245198731
2654.296875,76207.587310523,1965.6507756238,54125,46,160801,7.8125,253.65258546357
2658.203125,76419.189802749,1965.6235996344,54273,40,160801,3.90625,253.66126080516
2662.109375,76541.99996959,1965.6040919241,54358,31,160801,3.90625,253.66829323858
2666.015625,76659.322918426,1965.5924702847,54438,26,160801,3.90625,253.67364299359
2673.828125,76735.62811096,1965.6026316188,54490,50,160801,7.8125,253.67708130614
2681.640625,76877.103471607,1965.6506049797,54588,42,160801,7.8125,253.67241268384
2689.453125,77001.910091687,1965.7447270823,54676,32,160801,7.8125,253.65838778878
2697.265625,77130.052257751,1965.8942166458,54765,33,160801,7.8125,253.63545087597
2701.171875,77336.813501143,1965.9836964555,54910,37,160801,3.90625,253.62421599567
2708.984375,77390.855084366,1966.2033814347,54946,34,160801,7.8125,253.6131744609
2716.796875,77532.023646913,1966.3760385022,55045,44,160801,7.8125,253.65485362941
2724.609375,77671.834669653,1966.3760059196,55141,42,160801,7.8125,253.73054392482
2732.421875,77809.805157127,1966.212830425,55237,42,160801,7.8125,253.79492188388
2740.234375,77959.885614171,1965.9798168436,55340,49,160801,7.8125,253.84713528641
2742.1875,78244.5408933,1965.9172410154,55539,41,160801,1.953125,253.85944510332
2746.09375,78298.540422134,1965.792093894,55575,34,160801,3.90625,253.88269482577
2750,78429.19259325,1965.6687998379,55666,37,160801,3.90625,253.90444243388
2753.90625,78558.798336933,1965.5504221634,55755,35,160801,3.90625,253.92434006789
2757.8125,78686.549625914,1965.4400697511,55844,35,160801,3.90625,253.94187124867
2761.71875,78819.9944987,1965.3408310964,55935,37,160801,3.90625,253.95643860864
2765.625,78950.421068009,1965.2555331525,56025,36,160801,3.90625,253.96747960658
2769.53125,79084.137896219,1965.1864137704,56116,37,160801,3.90625,253.97464583728
2773.4375,79217.499022213,1965.134693535,56208,38,160801,3.90625,253.97806533887
2777.34375,79357.145455681,1965.0999528207,56303,41,160801,3.90625,253.97872912413
2781.25,79493.47424574,1965.0792327646,56397,40,160801,3.90625,253.97893823322
2785.15625,79633.165298447,1965.0660125513,56492,41,160801,3.90625,253.9825538086
2789.0625,79777.390844227,1965.0498272188,56592,46,160801,3.90625,253.99455193823
2792.96875,79911.497905671,1965.0179681668,56684,38,160801,3.90625,254.01955716432
2800.78125,79985.648140088,1964.880599712,56735,49,160801,7.8125,254.10713794044
2808.59375,80130.784342892,1964.6350688646,56835,46,160801,7.8125,254.20058359824
2816.40625,80280.560606191,1964.3411521842,56939,50,160801,7.8125,254.27846990725
2824.21875,80411.057293985,1964.039433587,57029,36,160801,7.8125,254.34715885948
2832.03125,80538.818956353,1963.7460055047,57118,35,160801,7.8125,254.41030544282
2839.84375,80669.374711991,1963.4680100131,57208,36,160801,7.8125,254.46860523128
2847.65625,80804.55465257,1963.2116917187,57302,40,160801,7.8125,254.52132672942
2855.46875,80944.302132155,1962.9845646568,57400,42,160801,7.8125,254.56688754685
2863.28125,81091.390564034,1962.7954949175,57503,48,160801,7.8125,254.60312407091
2871.09375,81234.012305694,1962.6541778099,57603,44,160801,7.8125,254.62754159793
2878.90625,81381.31357653,1962.5691140637,57707,48,160801,7.8125,254.63851317752
2882.8125,81601.045816702,1962.5414121849,57861,46,160801,3.90625,254.64123759773
2890.625,81673.738190539,1962.5316532848,57911,48,160801,7.8125,254.64403405646
2898.4375,81807.372907127,1962.508147259,58004,38,160801,7.8125,254.67663152481
2914.0625,81872.723815325,1962.0966085172,58049,43,160801,15.625,254.87205125747
2929.6875,82016.912265955,1961.3320229376,58150,45,160801,15.625,255.04748872267
2945.3125,82159.652948192,1960.5377456804,58250,45,160801,15.625,255.20981251978
2960.9375,82308.174165656,1959.7994494161,58354,48,160801,15.625,255.36031357119
2968.75,82526.094483325,1959.4508324359,58511,45,160801,7.8125,255.4316506623
2984.375,82597.041673771,1958.8697426601,58559,46,160801,15.625,255.55220585976
2992.1875,83035.908772339,1958.6086428252,59710,48,160801,7.8125,255.60685860354
3000,83179.727772395,1958.3778808881,59810,45,160801,7.8125,255.65566436843
3015.625,83255.5448204,1958.0223010117,59863,50,160801,15.625,255.73289910567
3023.4375,83407.121565527,1957.8676158266,59998,42,160801,7.8125,255.76706499681
3039.0625,83467.013049885,1957.6363901028,60041,39,160801,15.625,255.82035268388
3054.6875,83546.204091051,1957.4650620671,60132,41,160801,15.625,255.86217975681
3070.3125,83635.716499853,1957.3404543663,60230,49,160801,15.625,255.89513842511
3078.125,83788.852101068,1957.2876362924,60372,41,160801,7.8125,255.90983903605
3085.9375,83925.807492273,1957.2440494615,60469,41,160801,7.8125,255.92278746147
3101.5625,84003.035383343,1957.1868059014,60523,50,160801,15.625,255.9431485469
3109.375,84173.732772096,1957.1635762794,60711,46,160801,7.8125,255.95237046552
3117.1875,84314.856012935,1957.1461923085,60810,43,160801,7.8125,255.96050228402
3125,84457.70117038,1957.1340527559,60911,45,160801,7.8125,255.96767586552
3140.625,84530.547307891,1957.1286824404,60962,47,160801,15.625,255.97863046537
3148.4375,84687.156720014,1957.1291438413,61114,42,160801,7.8125,255.98360373791
3156.25,84829.736807152,1957.1338544928,61214,44,160801,7.8125,255.98778633722
3164.0625,84969.636002952,1957.1427133297,61313,43,160801,7.8125,255.99120702972
3179.6875,85046.863425544,1957.1782312594,61367,50,160801,15.625,255.99473179195
3187.5,85218.834396878,1957.1994698429,61538,50,160801,7.8125,255.99586853284
3191.40625,85422.310634214,1957.2111319637,61681,35,160801,3.90625,255.99623876948
3195.3125,85552.995101877,1957.2242620116,61772,37,160801,3.90625,255.99629982553
3203.125,85628.331077586,1957.2571521908,61823,49,160801,7.8125,255.99507596098
3207.03125,85837.990188476,1957.2749912429,61971,40,160801,3.90625,255.99419613666
3210.9375,85974.268180079,1957.2947322984,62065,40,160801,3.90625,255.99290715076
3214.84375,86115.182209945,1957.3165400717,62163,44,160801,3.90625,255.99117471288
3218.75,86258.855316406,1957.3406121563,62262,45,160801,3.90625,255.98895729086
3222.65625,86399.822798851,1957.3671880522,62360,44,160801,3.90625,255.98619315348
3226.5625,86544.131666491,1957.39655627,62459,45,160801,3.90625,255.98282156647
3230.46875,86686.602165351,1957.429062681,62558,45,160801,3.90625,255.97875434363
3234.375,86830.915658476,1957.4651206084,62657,45,160801,3.90625,255.97389241126
3242.1875,86903.643663526,1957.554173073,62707,48,160801,7.8125,255.96035537495
3246.09375,87118.077294662,1957.6040389936,62857,42,160801,3.90625,255.95237503019
3250,87257.574376962,1957.660098458,62954,43,160801,3.90625,255.94296065002
3253.90625,87404.774050137,1957.7232421037,63055,47,160801,3.90625,255.93193769184
3257.8125,87541.344644683,1957.794436452,63150,41,160801,3.90625,255.91914151823
3261.71875,87688.568546936,1957.8746590355,63251,47,160801,3.90625,255.90446762206
3265.625,87830.177524757,1957.9647448667,63349,44,160801,3.90625,255.88796564147
3269.53125,87975.111665649,1958.0650892223,63448,45,160801,3.90625,255.870029868
3273.4375,88124.761823405,1958.1751150001,63551,49,160801,3.90625,255.85166382107
3277.34375,88271.151731416,1958.2924079777,63651,46,160801,3.90625,255.83488768936
3281.25,88411.910507652,1958.4115499913,63748,43,160801,3.90625,255.82308918025
3285.15625,88549.387304149,1958.5231553704,63842,40,160801,3.90625,255.82090977789
3289.0625,88691.590998407,1958.6144682262,63940,44,160801,3.90625,255.83299155082
3292.96875,88826.48857533,1958.6729837725,64033,39,160801,3.90625,255.85881096286
3300.78125,88884.489615244,1958.6726803939,64073,38,160801,7.8125,255.92591112159
3308.59375,89019.335368222,1958.5476158263,64166,39,160801,7.8125,255.98278062862
3316.40625,89151.493387348,1958.3620440947,64258,38,160801,7.8125,256.0312267452
3324.21875,89286.336450365,1958.1503321929,64351,39,160801,7.8125,256.07789825283
3332.03125,89418.475311066,1957.9260189722,64443,38,160801,7.8125,256.12504575997
3339.84375,89551.807456314,1957.6962860133,64535,38,160801,7.8125,256.17274487097
3347.65625,89683.921871018,1957.4675931408,64627,38,160801,7.8125,256.22023928566
3355.46875,89818.765975743,1957.2465994987,64720,39,160801,7.8125,256.26649157133
3363.28125,89955.525471068,1957.0396969622,64816,41,160801,7.8125,256.31042490439
3371.09375,90093.515354506,1956.8525604975,64912,41,160801,7.8125,256.35102449683
3378.90625,90237.310896008,1956.6901128759,65012,45,160801,7.8125,256.38733297845
3386.71875,90375.932840156,1956.5568792223,65108,40,160801,7.8125,256.41840831271
3394.53125,90518.584480967,1956.4575816687,65208,44,160801,7.8125,256.44326323606
3402.34375,90656.518638396,1956.3977783971,65304,40,160801,7.8125,256.46071269571
3410.15625,90794.64812241,1956.3841184243,65401,41,160801,7.8125,256.46941579461
3417.96875,90944.401977856,1956.4229132565,65505,48,160801,7.8125,256.46888894596
3425.78125,91094.434736412,1956.5131483179,65610,49,160801,7.8125,256.46325656158
3433.59375,91245.134837464,1956.6260508486,65715,49,160801,7.8125,256.47047591459
3441.40625,91386.392490392,1956.6804726637,65814,44,160801,7.8125,256.52074766444
3449.21875,91522.691038321,1956.594703785,65908,40,160801,7.8125,256.60035583163
3457.03125,91651.848328227,1956.3848890725,65998,36,160801,7.8125,256.67123726871
3464.84375,91780.774615595,1956.1132964998,66087,35,160801,7.8125,256.73205224465
3472.65625,91914.344064232,1955.8172464133,66180,39,160801,7.8125,256.78965097394
3480.46875,92046.146290894,1955.5114643488,66271,37,160801,7.8125,256.84678210952
3488.28125,92182.595835264,1955.2029542504,66366,41,160801,7.8125,256.90373009538
3503.90625,92253.483385796,1954.6154157824,66414,46,160801,15.625,257.01132627866
3519.53125,92400.859537527,1954.0842240114,66525,47,160801,15.625,257.10787188572
3527.34375,92610.06216362,1953.8352380838,66695,35,160801,7.8125,257.15290827839
3535.15625,92736.412797334,1953.6055285862,66784,34,160801,7.8125,257.194214241
3542.96875,92874.278385061,1953.3957147943,66880,41,160801,7.8125,257.23172083707
3550.78125,93003.616376082,1953.2056596495,66971,36,160801,7.8125,257.26546837492
3558.59375,93135.620621665,1953.034675358,67063,37,160801,7.8125,257.29561693106
3566.40625,93266.381309044,1952.8817125433,67155,37,160801,7.8125,257.32236787921
3574.21875,93386.670918749,1952.7455088757,67239,29,160801,7.8125,257.34596212874
3582.03125,93515.946889634,1952.6246985937,67330,36,160801,7.8125,257.36665973281
3589.84375,93646.699507461,1952.5178902977,67422,36,160801,7.8125,257.38471190155
3597.65625,93777.67325529,1952.4237193229,67515,37,160801,7.8125,257.40036886092
3605.46875,93911.370802562,1952.3408815544,67609,38,160801,7.8125,257.41385013229
3613.28125,94042.373127956,1952.2681529599,67702,37,160801,7.8125,257.42537821757
3621.09375,94177.491425441,1952.2043997472,67797,39,160801,7.8125,257.43513634426
3628.90625,94312.862560041,1952.1485809557,67893,40,160801,7.8125,257.4432964707
3636.71875,94458.276527229,1952.0997464102,67995,46,160801,7.8125,257.45001464273
3644.53125,94598.04389771,1952.057031346,68094,43,160801,7.8125,257.45542389874
3652.34375,94734.645557275,1952.0196483342,68190,40,160801,7.8125,257.45962872615
3660.15625,94868.564384388,1951.9868779311,68285,39,160801,7.8125,257.46273642695
3667.96875,95000.73526209,1951.958057507,68378,37,160801,7.8125,257.46481869177
3675.78125,95144.907833045,1951.9325688322,68480,46,160801,7.8125,257.46594052119
3683.59375,95284.450376542,1951.9098239345,68578,42,160801,7.8125,257.46615450782
3691.40625,95422.751374574,1951.8892488414,68676,42,160801,7.8125,257.4654901973
3699.21875,95573.975739374,1951.8702641343,68782,50,160801,7.8125,257.46396247349
3707.03125,95721.109830739,1951.8522611849,68886,48,160801,7.8125,257.46157046176
3714.84375,95870.881279729,1951.8345720296,68991,49,160801,7.8125,257.45829417107
3722.65625,96017.97539034,1951.8164304306,69095,48,160801,7.8125,257.45408337395
3726.5625,96227.305533435,1951.8066532833,69242,39,160801,3.90625,257.45175841213
3734.375,96298.467136517,1951.7861777491,69291,47,160801,7.8125,257.44598420938
3742.1875,96449.707281695,1951.7625021796,69397,50,160801,7.8125,257.43903808331
3750,96598.202797366,1951.7340041329,69502,49,160801,7.8125,257.43073150655
3757.8125,96739.357216997,1951.6985483268,69601,43,160801,7.8125,257.42079963082
3765.625,96879.518912475,1951.6533407354,69700,43,160801,7.8125,257.4088783576
3781.25,96947.280155643,1951.5120998155,69747,43,160801,15.625,257.37471413778
3785.15625,97158.168359688,1951.4653431606,69923,34,160801,3.90625,257.36474045223
3789.0625,97289.184341436,1951.4129069953,70013,36,160801,3.90625,257.353683179
3796.875,97347.220203143,1951.2878195921,70053,38,160801,7.8125,257.3275556501
3804.6875,97487.498928733,1951.1404131625,70151,42,160801,7.8125,257.2977144404
3808.59375,97689.741340328,1951.0625996684,70294,35,160801,3.90625,257.28263871601
3816.40625,97751.148142123,1950.9039491777,70335,39,160801,7.8125,257.25382227664
3824.21875,97893.932985439,1950.7583327994,70436,45,160801,7.8125,257.2322894116
3832.03125,98023.918542365,1950.6373515288,70527,35,160801,7.8125,257.22025230536
3839.84375,98154.98976576,1950.5440584492,70620,37,160801,7.8125,257.21601081577
3855.46875,98218.212791574,1950.4274841243,70664,40,160801,15.625,257.22075142786
3871.09375,98301.380989115,1950.3668920002,70750,48,160801,15.625,257.23525294465
3878.90625,98450.418541077,1950.3461754292,70882,41,160801,7.8125,257.24520483789
3886.71875,98588.810768988,1950.3307201094,70980,42,160801,7.8125,257.2564171854
3894.53125,98723.142155431,1950.3196921709,71074,38,160801,7.8125,257.26854531519
3902.34375,98862.9933978,1950.3126511414,71173,43,160801,7.8125,257.28115515642
3910.15625,99004.703685491,1950.3093985253,71272,43,160801,7.8125,257.29392706245
3917.96875,99143.10256186,1950.3098983556,71370,42,160801,7.8125,257.3066898309
3925.78125,99287.666389856,1950.3142284154,71471,45,160801,7.8125,257.31910682743
3933.59375,99426.093752476,1950.3225527366,71569,42,160801,7.8125,257.33061682002
3941.40625,99572.176844257,1950.3351222642,71671,46,160801,7.8125,257.34081432839
3949.21875,99720.63695969,1950.3522941772,71776,49,160801,7.8125,257.34975106126
3957.03125,99870.370230811,1950.374556873,71881,49,160801,7.8125,257.35761938452
3964.84375,100020.36234074,1950.4025645652,71987,50,160801,7.8125,257.3646183936
3972.65625,100167.83516919,1950.437193285,72090,47,160801,7.8125,257.37031995497
3976.5625,100381.6425487,1950.4560516771,72241,43,160801,3.90625,257.37266656976
3984.375,100437.05870782,1950.5031280509,72278,35,160801,7.8125,257.37429104506
3988.28125,100647.87682846,1950.5288463363,72427,41,160801,3.90625,257.37427349732
3996.09375,100723.80799311,1950.5926171992,72478,49,160801,7.8125,257.37031641654
4003.90625,100866.52801744,1950.6710404229,72579,45,160801,7.8125,257.36192707633
4011.71875,101018.36046454,1950.7684501521,72685,50,160801,7.8125,257.34813138726
4019.53125,101162.52550286,1950.8906511069,72787,46,160801,7.8125,257.32770580872
4027.34375,101311.46889586,1951.0448244432,72891,48,160801,7.8125,257.29913242333
4035.15625,101460.00324258,1951.2377468948,72996,49,160801,7.8125,257.26211590092
4039.0625,101684.35131811,1951.3445516454,73153,49,160801,3.90625,257.24287664736
4042.96875,101833.86390013,1951.4595255794,73257,50,160801,3.90625,257.22434428936
4050.78125,101911.24405484,1951.7024876269,73309,50,160801,7.8125,257.20189422765
4058.59375,102050.77665006,1951.8825223212,73407,43,160801,7.8125,257.22875642243
4074.21875,102120.84737872,1951.8362338299,73454,45,160801,15.625,257.3501852958
4082.03125,102321.52777435,1951.6819822294,73602,33,160801,7.8125,257.39897039858
4097.65625,102397.47519952,1951.2995195248,73653,49,160801,15.625,257.49127016803
4113.28125,102548.31343123,1950.8873833863,73774,48,160801,15.625,257.58358410725
4128.90625,102762.01630853,1950.4752082327,74336,38,160801,15.625,257.67377933209
4136.71875,103205.02529251,1950.270757142,75567,38,160801,7.8125,257.71813590157
4152.34375,103281.14773886,1949.8974672593,75619,49,160801,15.625,257.79882249199
4167.96875,103358.08344097,1949.5680625882,75717,38,160801,15.625,257.87044196572
4183.59375,103442.67840969,1949.2895859925,75813,44,160801,15.625,257.93193907915
4199.21875,103533.24726567,1949.0650837604,75922,47,160801,15.625,257.98299252312
4207.03125,103712.70003249,1948.9650082763,76120,50,160801,7.8125,258.00622448444
4214.84375,103846.54507624,1948.8796599818,76215,39,160801,7.8125,258.02650522557
4218.75,104051.88615462,1948.8401324323,76359,36,160801,3.90625,258.03602901258
4222.65625,104183.85975134,1948.8044387669,76451,38,160801,3.90625,258.04474945435
4226.5625,104314.73413857,1948.7725556447,76541,36,160801,3.90625,258.05267501786
4230.46875,104445.25334644,1948.7444784433,76632,37,160801,3.90625,258.05980101142
4234.375,104577.6228251,1948.7202178779,76723,37,160801,3.90625,258.06610967045
4238.28125,104712.54693126,1948.6997996289,76817,40,160801,3.90625,258.07157860162
4242.1875,104847.12794494,1948.6832652896,76910,39,160801,3.90625,258.07618857497
4246.09375,104983.45511496,1948.6706744036,77005,41,160801,3.90625,258.07990438367
4253.90625,105058.67694159,1948.6624942223,77056,49,160801,7.8125,258.08347917389
4261.71875,105198.33937952,1948.6710341659,77155,43,160801,7.8125,258.08301107175
4269.53125,105342.16423561,1948.6980674347,77256,45,160801,7.8125,258.07779913909
4273.4375,105557.38706697,1948.7161798038,77408,44,160801,3.90625,258.07383785557
4281.25,105629.73684829,1948.7763606375,77457,47,160801,7.8125,258.0595276465
4285.15625,105843.48493743,1948.8124961476,77608,43,160801,3.90625,258.05049684338
4289.0625,105985.43130423,1948.8559598509,77706,44,160801,3.90625,258.03932359803
4292.96875,106134.97788271,1948.9074610905,77810,50,160801,3.90625,258.02579928073
4294.921875,106339.21993362,1948.9353227101,77952,36,160801,1.953125,258.01836807092
4298.828125,106413.2690525,1949.0005610081,78003,49,160801,3.90625,258.00076965972
4302.734375,106559.53932645,1949.0761532979,78104,47,160801,3.90625,257.98009969213
4306.640625,106700.20895986,1949.1632484889,78202,44,160801,3.90625,257.95601452785
4310.546875,106849.41992665,1949.263050334,78305,49,160801,3.90625,257.92822321678
4314.453125,106991.54829812,1949.3766804916,78404,45,160801,3.90625,257.89654315717
4318.359375,107142.23160864,1949.5049240269,78508,50,160801,3.90625,257.86107444724
4322.265625,107290.23813396,1949.6477762596,78611,49,160801,3.90625,257.82248669654
4324.21875,107497.3896901,1949.7223523459,78755,38,160801,1.953125,257.80296718284
4328.125,107565.53347329,1949.8836639764,78802,45,160801,3.90625,257.76310208324
4332.03125,107716.2320344,1950.0507831717,78906,50,160801,3.90625,257.72684685213
4333.984375,107916.25378972,1950.131854829,79046,34,160801,1.953125,257.71196430105
4335.9375,108044.97826338,1950.2109580359,79135,35,160801,1.953125,257.6995514165
4339.84375,108105.87743629,1950.3612491084,79177,40,160801,3.90625,257.68239659119
4343.75,108249.94016803,1950.4884320746,79276,45,160801,3.90625,257.67416712313
4345.703125,108451.51089085,1950.5406667327,79417,35,160801,1.953125,257.67155326543
4347.65625,108580.93948302,1950.5870418024,79506,35,160801,1.953125,257.66845346883
4351.5625,108652.09227999,1950.6686199101,79555,47,160801,3.90625,257.65755118766
4359.375,108725.82500043,1950.8189189859,79605,48,160801,7.8125,257.60974457636
4363.28125,108945.10116386,1950.892468945,79759,47,160801,3.90625,257.57662591875
4365.234375,109141.93677031,1950.9311467252,79896,31,160801,1.953125,257.55831741261
4369.140625,109214.45528755,1951.0208206525,79946,48,160801,3.90625,257.51708141514
4371.09375,109411.3013259,1951.0673583345,80083,31,160801,1.953125,257.49626853392
4373.046875,109531.46251929,1951.1155817681,80167,30,160801,1.953125,257.47559510203
4375,109654.29621973,1951.1643848592,80252,31,160801,1.953125,257.45582095613
4378.90625,109729.73576537,1951.2611304387,80304,50,160801,3.90625,257.42163268878
4380.859375,109925.07652019,1951.3011744539,80440,30,160801,1.953125,257.4102840267
4384.765625,109997.59525208,1951.3606104976,80490,48,160801,3.90625,257.40239830865
4386.71875,110194.42378271,1951.3721299672,80627,31,160801,1.953125,257.40829212541
4390.625,110266.93969525,1951.3550624548,80677,48,160801,3.90625,257.43955581761
4392.578125,110463.81988997,1951.3214279032,80814,31,160801,1.953125,257.4641212208
4396.484375,110536.37858951,1951.2043817402,80864,48,160801,3.90625,257.52677992903
4400.390625,110681.16391664,1951.0208040678,80964,46,160801,3.90625,257.59916278969
4408.203125,110750.75414803,1950.4962374235,81012,46,160801,7.8125,257.7395352086
4423.828125,110814.22959316,1949.1555835398,81055,41,160801,15.625,257.98437661522
4439.453125,110961.42178488,1947.7512235557,81160,48,160801,15.625,258.21577476492
4447.265625,111171.05649594,1947.0526735257,81310,39,160801,7.8125,258.32928517432
4455.078125,111298.54132806,1946.3729254711,81399,35,160801,7.8125,258.43890291918
4462.890625,111433.08215106,1945.7217935716,81492,39,160801,7.8125,258.54326708952
4478.515625,111495.34616471,1944.5745787802,81535,41,160801,15.625,258.72497838789
4486.328125,111879.04027142,1944.041514453,82456,44,160801,7.8125,258.80874689746
4494.140625,112011.16868315,1943.5514792624,82549,38,160801,7.8125,258.88497438355
4509.765625,112079.20211803,1942.7334518404,82596,44,160801,15.625,259.0091000963
4525.390625,112133.52561586,1942.0586523608,82665,27,160801,15.625,259.10797393047
4541.015625,112206.0487586,1941.5081310558,82755,35,160801,15.625,259.18478502953
4556.640625,112283.58706545,1941.0633115569,82845,41,160801,15.625,259.24269002769
4564.453125,112434.99215582,1940.8644334888,82987,40,160801,7.8125,259.26741112679
4572.265625,112571.52091405,1940.6879881132,83084,41,160801,7.8125,259.28803933659
4587.890625,112641.20196642,1940.4109145193,83133,45,160801,15.625,259.31536231655
4603.515625,112735.09237844,1940.1963011635,83241,50,160801,15.625,259.33090777961
4619.140625,112856.40726713,1940.0355775251,83459,47,160801,15.625,259.33572546813
4634.765625,112957.35108612,1939.9228776421,83600,49,160801,15.625,259.33030985405
4642.578125,113126.52667128,1939.8775905311,83794,42,160801,7.8125,259.32504427848
4650.390625,113262.76900281,1939.8442811124,83891,41,160801,7.8125,259.31688738435
4666.015625,113333.03508977,1939.8257052604,83940,45,160801,15.625,259.28832235925
4673.828125,113500.27558959,1939.829077516,84101,49,160801,7.8125,259.27029187915
4677.734375,113707.28551562,1939.8344013432,84246,37,160801,3.90625,259.26013730041
4685.546875,113769.75706085,1939.861798316,84289,41,160801,7.8125,259.23473208124
4693.359375,113915.63196424,1939.9085316849,84391,46,160801,7.8125,259.20307611055
4701.171875,114053.22609196,1939.9790961394,84489,42,160801,7.8125,259.16335270512
4705.078125,114267.52180482,1940.0219242185,84639,42,160801,3.90625,259.14075703645
4708.984375,114415.86694731,1940.0729599111,84742,49,160801,3.90625,259.11526086797
4712.890625,114564.72503947,1940.1330906641,84844,48,160801,3.90625,259.08656736636
4720.703125,114640.50460131,1940.2923988997,84896,50,160801,7.8125,259.01607024397
4728.515625,114785.02507589,1940.4942708931,84997,45,160801,7.8125,258.93381321127
4730.46875,115062.87322272,1940.5461629297,85193,36,160801,1.953125,258.91398599005
4732.421875,115199.94344812,1940.5992040724,85287,40,160801,1.953125,258.89465617599
4736.328125,115275.72566438,1940.707085414,85339,50,160801,3.90625,258.85929442932
4744.140625,115339.94221863,1940.8864193218,85382,41,160801,7.8125,258.82318392914
4759.765625,115399.48365112,1940.8376458198,85423,39,160801,15.625,258.90566504348
4791.015625,115474.12887376,1940.0179849448,85473,48,160801,31.25,259.04390508604
4806.640625,115850.62051117,1939.5732121146,86348,48,160801,15.625,259.11080016301
4822.265625,116001.03731731,1939.1358195683,86470,46,160801,15.625,259.17701976763
4853.515625,116068.0284724,1938.3757784172,86521,43,160801,31.25,259.29345287568
4869.140625,116453.43318904,1938.0291079643,87695,49,160801,15.625,259.34686477253
4876.953125,116587.84147705,1937.8647483977,87821,31,160801,7.8125,259.37223011885
4892.578125,116661.87690432,1937.5737286981,87872,48,160801,15.625,259.41702797571
4908.203125,116746.7740475,1937.317737185,87961,48,160801,15.625,259.45631920551
4923.828125,116886.60174624,1937.094071562,88267,44,160801,15.625,259.49049642038
4939.453125,116976.05886306,1936.8996012576,88371,47,160801,15.625,259.5200604518
4955.078125,117049.30533379,1936.7311265261,88458,37,160801,15.625,259.54553634996
4970.703125,117115.48654514,1936.5855721095,88541,33,160801,15.625,259.56744331753
4985.3515625,117198.71879389,1936.4668383739,88628,46,160801,14.6484375,259.58524140283
5000,117256.84133607,1936.3637535342,88669,38,160801,14.6484375,259.60062711237
